 vasp.5.4.4.18Apr17-6-g9f103f2a35 (build Jun 30 2017 11:15:00) complex

 executed on    STALLO_VASP_5.4.4 date 2019.11.08  15:16:38

 INCAR:
 POTCAR:   PAW_PBE Mo 08Apr2002
 POTCAR:    PAW_PBE S 17Jan2003
 POTCAR:   PAW_PBE Mo 08Apr2002
   VRHFIN =Mo: 4p5s4d

   TITEL  = PAW_PBE Mo 08Apr2002
   POMASS =   95.940; ZVAL   =    6.000    mass and valenz
   ENMAX  =  224.584; ENMIN  =  168.438 eV
   QCUT   =   -4.063; QGAM   =    8.126    optimization parameters

   Description
     l     E      TYP  RCUT    TYP  RCUT
     2   .000     23  2.500
     2   .000     23  2.500
     0   .000     23  2.600
     0  1.000     23  2.600
     1   .400     23  2.750
     1  2.000     23  2.750
     3   .000      7   .000

 POTCAR:    PAW_PBE S 17Jan2003
   VRHFIN =S : s2p4

   TITEL  = PAW_PBE S 17Jan2003
   POMASS =   32.066; ZVAL   =    6.000    mass and valenz
   ENMAX  =  280.000; ENMIN  =  194.016 eV
   QCUT   =   -4.360; QGAM   =    8.721    optimization parameters

   Description
     l     E      TYP  RCUT    TYP  RCUT
     0   .000     23  1.900
     0   .000     23  1.900
     1   .000     23  1.900
     1   .000     23  1.900
     2   .000     23  1.900

 PAW_PBE Mo 08Apr2002                   :
  PAW_PBE S 17Jan2003                   :

 POSCAR: unknown system
  positions in direct lattice
  velocities in cartesian coordinates
 exchange correlation table for  LEXCH =        8
   RHO(1)=    0.500       N(1)  =     2000
   RHO(2)=  100.500       N(2)  =     4000

 ion  position               nearest neighbor table
   1  0.333  0.667  0.250-   4 2.41   5 2.41   4 2.41   5 2.41   5 2.41   4 2.41
   2  0.667  0.333  0.750-   3 2.41   6 2.41   3 2.41   6 2.41   6 2.41   3 2.41
   3  0.333  0.667  0.867-   2 2.41   2 2.41   2 2.41
   4  0.667  0.333  0.133-   1 2.41   1 2.41   1 2.41
   5  0.667  0.333  0.367-   1 2.41   1 2.41   1 2.41
   6  0.333  0.667  0.633-   2 2.41   2 2.41   2 2.41

  LATTYP: Found a hexagonal cell.
 ALAT       =     3.1922739082
 C/A-ratio  =     4.1605291851

  Lattice vectors:

 A1 = (   3.1922737479,   0.0000000000,   0.0000000000)
 A2 = (  -1.5961368740,   2.7645903466,   0.0000000000)
 A3 = (   0.0000000000,   0.0000000000,  13.2815487621)

Analysis of symmetry for initial positions (statically):
 Subroutine PRICEL returns:
 Original cell was already a primitive cell.

 Routine SETGRP: Setting up the symmetry group for a
 hexagonal supercell.

 Subroutine GETGRP returns: Found 24 space group operations
 (whereof 12 operations were pure point group operations)
 out of a pool of 24 trial point group operations.

The static configuration has the point symmetry D_3d.
 The point group associated with its full space group is D_6h.

Analysis of symmetry for dynamics (positions and initial velocities):
 Subroutine PRICEL returns:
 Original cell was already a primitive cell.

 Routine SETGRP: Setting up the symmetry group for a
 hexagonal supercell.

 Subroutine GETGRP returns: Found 24 space group operations
 (whereof 12 operations were pure point group operations)
 out of a pool of 24 trial point group operations.

The dynamic configuration has the point symmetry D_3d.
 The point group associated with its full space group is D_6h.

 Subroutine INISYM returns: Found 24 space group operations
 (whereof 12 operations are pure point group operations),
 and found     1 'primitive' translations

 KPOINTS: k-density: 5.0

Automatic generation of k-mesh.
Space group operators:
 irot       det(A)        alpha          n_x          n_y          n_z        tau_x        tau_y        tau_z
    1     1.000000     0.000000     1.000000     0.000000     0.000000     0.000000     0.000000     0.000000
    2    -1.000000     0.000000     1.000000     0.000000     0.000000     0.000000     0.000000     0.000000
    3     1.000000   120.000000     0.000000     0.000000    -1.000000     0.000000     0.000000     0.000000
    4    -1.000000   120.000000     0.000000     0.000000    -1.000000     0.000000     0.000000     0.000000
    5     1.000000   120.000000     0.000000     0.000000     1.000000     0.000000     0.000000     0.000000
    6    -1.000000   120.000000     0.000000     0.000000     1.000000     0.000000     0.000000     0.000000
    7     1.000000   180.000000     1.000000    -0.000000     0.000000     0.000000     0.000000     0.000000
    8    -1.000000   180.000000     1.000000    -0.000000     0.000000     0.000000     0.000000     0.000000
    9     1.000000   179.999999     0.500000    -0.866025     0.000000     0.000000     0.000000     0.000000
   10    -1.000000   179.999999     0.500000    -0.866025     0.000000     0.000000     0.000000     0.000000
   11     1.000000   180.000000    -0.500000    -0.866025     0.000000     0.000000     0.000000     0.000000
   12    -1.000000   180.000000    -0.500000    -0.866025     0.000000     0.000000     0.000000     0.000000
   13     1.000000    60.000000     0.000000     0.000000    -1.000000     0.000001     0.000000     0.500000
   14    -1.000000    60.000000     0.000000     0.000000    -1.000000     0.000001     0.000000     0.500000
   15     1.000000   180.000000     0.000000     0.000000     1.000000     0.000000     0.000000     0.500000
   16    -1.000000   180.000000     0.000000     0.000000     1.000000     0.000000     0.000000     0.500000
   17     1.000000    60.000000     0.000000     0.000000     1.000000     0.000000     0.000000     0.500000
   18    -1.000000    60.000000     0.000000     0.000000     1.000000     0.000000     0.000000     0.500000
   19     1.000000   180.000000     0.866025    -0.500000     0.000000     0.000000     0.000000     0.500000
   20    -1.000000   180.000000     0.866025    -0.500000     0.000000     0.000000     0.000000     0.500000
   21     1.000000   180.000000     0.000000    -1.000000     0.000000     0.000001     0.000000     0.500000
   22    -1.000000   180.000000     0.000000    -1.000000     0.000000     0.000001     0.000000     0.500000
   23     1.000000   180.000000     0.866025     0.500000     0.000000     0.000000     0.000000     0.500000
   24    -1.000000   180.000000     0.866025     0.500000     0.000000     0.000000     0.000000     0.500000

 Subroutine IBZKPT returns following result:

 Found     28 irreducible k-points:

 Following reciprocal coordinates:
            Coordinates               Weight
  0.000000  0.000000  0.000000      1.000000
  0.100000  0.000000  0.000000      6.000000
  0.200000  0.000000  0.000000      6.000000
  0.300000  0.000000  0.000000      6.000000
  0.400000  0.000000  0.000000      6.000000
  0.500000  0.000000  0.000000      3.000000
  0.100000  0.100000  0.000000      6.000000
  0.200000  0.100000  0.000000     12.000000
  0.300000  0.100000  0.000000     12.000000
  0.400000  0.100000  0.000000     12.000000
  0.200000  0.200000  0.000000      6.000000
  0.300000  0.200000  0.000000     12.000000
  0.400000  0.200000  0.000000      6.000000
  0.300000  0.300000  0.000000      6.000000
  0.000000  0.000000  0.333333      2.000000
  0.100000  0.000000  0.333333     12.000000
  0.200000  0.000000  0.333333     12.000000
  0.300000  0.000000  0.333333     12.000000
  0.400000  0.000000  0.333333     12.000000
  0.500000  0.000000  0.333333      6.000000
  0.100000  0.100000  0.333333     12.000000
  0.200000  0.100000  0.333333     24.000000
  0.300000  0.100000  0.333333     24.000000
  0.400000  0.100000  0.333333     24.000000
  0.200000  0.200000  0.333333     12.000000
  0.300000  0.200000  0.333333     24.000000
  0.400000  0.200000  0.333333     12.000000
  0.300000  0.300000  0.333333     12.000000

 Following cartesian coordinates:
            Coordinates               Weight
  0.000000  0.000000  0.000000      1.000000
  0.031326  0.018086  0.000000      6.000000
  0.062651  0.036172  0.000000      6.000000
  0.093977  0.054258  0.000000      6.000000
  0.125303  0.072343  0.000000      6.000000
  0.156628  0.090429  0.000000      3.000000
  0.031326  0.054258  0.000000      6.000000
  0.062651  0.072343  0.000000     12.000000
  0.093977  0.090429  0.000000     12.000000
  0.125303  0.108515  0.000000     12.000000
  0.062651  0.108515  0.000000      6.000000
  0.093977  0.126601  0.000000     12.000000
  0.125303  0.144687  0.000000      6.000000
  0.093977  0.162773  0.000000      6.000000
  0.000000  0.000000  0.025097      2.000000
  0.031326  0.018086  0.025097     12.000000
  0.062651  0.036172  0.025097     12.000000
  0.093977  0.054258  0.025097     12.000000
  0.125303  0.072343  0.025097     12.000000
  0.156628  0.090429  0.025097      6.000000
  0.031326  0.054258  0.025097     12.000000
  0.062651  0.072343  0.025097     24.000000
  0.093977  0.090429  0.025097     24.000000
  0.125303  0.108515  0.025097     24.000000
  0.062651  0.108515  0.025097     12.000000
  0.093977  0.126601  0.025097     24.000000
  0.125303  0.144687  0.025097     12.000000
  0.093977  0.162773  0.025097     12.000000

 TETIRR: Found    265 inequivalent tetrahedra from     1800

 SYSTEM =  unknown system
 POSCAR =  unknown system

 Startparameter for this run:
   NWRITE =      2    write-flag & timer
   PREC   = accura    normal or accurate (medium, high low for compatibility)
   ISTART =      0    job   : 0-new  1-cont  2-samecut
   ICHARG =      2    charge: 1-file 2-atom 10-const
   ISPIN  =      1    spin polarized calculation?
   LNONCOLLINEAR =      F non collinear calculations
   LSORBIT =      F    spin-orbit coupling
   INIWAV =      1    electr: 0-lowe 1-rand  2-diag
   LASPH  =      F    aspherical Exc in radial PAW
   METAGGA=      F    non-selfconsistent MetaGGA calc.

 Electronic Relaxation 1
   ENCUT  =  450.0 eV  33.07 Ry    5.75 a.u.   5.52  5.52 22.97*2*pi/ulx,y,z
   ENINI  =  450.0     initial cutoff
   ENAUG  =  345.3 eV  augmentation charge cutoff
   NELM   =     60;   NELMIN=  4; NELMDL= -5     # of ELM steps
   EDIFF  = 0.1E-05   stopping-criterion for ELM
   LREAL  =      F    real-space projection
   NLSPLINE    = F    spline interpolate recip. space projectors
   LCOMPAT=      F    compatible to vasp.4.4
   GGA_COMPAT  = T    GGA compatible to vasp.4.4-vasp.4.6
   LMAXPAW     = -100 max onsite density
   LMAXMIX     =    2 max onsite mixed and CHGCAR
   VOSKOWN=      0    Vosko Wilk Nusair interpolation
   ROPT   =    0.00000   0.00000
 Ionic relaxation
   EDIFFG = 0.1E-04   stopping-criterion for IOM
   NSW    =      0    number of steps for IOM
   NBLOCK =      1;   KBLOCK =      1    inner block; outer block
   IBRION =     -1    ionic relax: 0-MD 1-quasi-New 2-CG
   NFREE  =      0    steps in history (QN), initial steepest desc. (CG)
   ISIF   =      2    stress and relaxation
   IWAVPR =     10    prediction:  0-non 1-charg 2-wave 3-comb
   ISYM   =      2    0-nonsym 1-usesym 2-fastsym
   LCORR  =      T    Harris-Foulkes like correction to forces

   POTIM  = 0.5000    time-step for ionic-motion
   TEIN   =    0.0    initial temperature
   TEBEG  =    0.0;   TEEND  =   0.0 temperature during run
   SMASS  =  -3.00    Nose mass-parameter (am)
   estimated Nose-frequenzy (Omega)   =  0.10E-29 period in steps =****** mass=  -0.233E-27a.u.
   SCALEE = 1.0000    scale energy and forces
[...]
   LLRAUG    =     F  two centre corrections for induced B field

 Static calculation
 charge density and potential will be updated during run
 non-spin polarized calculation
 RMM-DIIS sequential band-by-band and
  variant of blocked Davidson during initial phase
 perform sub-space diagonalisation
    before iterative eigenvector-optimisation
 modified Broyden-mixing scheme, WC =      100.0
 initial mixing is a Kerker type mixing with AMIX =  0.4000 and BMIX =      1.0000
 Hartree-type preconditioning will be used
 using additional bands            4
 reciprocal scheme for non local part
 use partial core corrections
 calculate Harris-corrections to forces
   (improved forces if not selfconsistent)
 use gradient corrections
 use of overlap-Matrix (Vanderbilt PP)
 Fermi weights with tetrahedron method with Bloechl corrections

  energy-cutoff  :      450.00
  volume of cell :      117.21
      direct lattice vectors                 reciprocal lattice vectors
     3.192273748  0.000000000  0.000000000     0.313256343  0.180858622  0.000000000
    -1.596136874  2.764590347  0.000000000    -0.000000000  0.361717244  0.000000000
     0.000000000  0.000000000 13.281548762     0.000000000  0.000000000  0.075292424

  length of vectors
     3.192273748  3.192273908 13.281548762     0.361717262  0.361717244  0.075292424

 k-points in units of 2pi/SCALE and weight: k-density: 5.0
   0.00000000  0.00000000  0.00000000       0.003
   0.03132563  0.01808586  0.00000000       0.020
   0.06265127  0.03617172  0.00000000       0.020
   0.09397690  0.05425759  0.00000000       0.020
   0.12530254  0.07234345  0.00000000       0.020
   0.15662817  0.09042931  0.00000000       0.010
   0.03132563  0.05425759  0.00000000       0.020
   0.06265127  0.07234345  0.00000000       0.040
   0.09397690  0.09042931  0.00000000       0.040
   0.12530254  0.10851517  0.00000000       0.040
   0.06265127  0.10851517  0.00000000       0.020
   0.09397690  0.12660104  0.00000000       0.040
   0.12530254  0.14468690  0.00000000       0.020
   0.09397690  0.16277276  0.00000000       0.020
   0.00000000  0.00000000  0.02509747       0.007
   0.03132563  0.01808586  0.02509747       0.040
   0.06265127  0.03617172  0.02509747       0.040
   0.09397690  0.05425759  0.02509747       0.040
   0.12530254  0.07234345  0.02509747       0.040
   0.15662817  0.09042931  0.02509747       0.020
   0.03132563  0.05425759  0.02509747       0.040
   0.06265127  0.07234345  0.02509747       0.080
   0.09397690  0.09042931  0.02509747       0.080
   0.12530254  0.10851517  0.02509747       0.080
   0.06265127  0.10851517  0.02509747       0.040
   0.09397690  0.12660104  0.02509747       0.080
   0.12530254  0.14468690  0.02509747       0.040
   0.09397690  0.16277276  0.02509747       0.040

 k-points in reciprocal lattice and weights: k-density: 5.0
   0.00000000  0.00000000  0.00000000       0.003
   0.10000000  0.00000000  0.00000000       0.020
   0.20000000  0.00000000  0.00000000       0.020
   0.30000000  0.00000000  0.00000000       0.020
   0.40000000  0.00000000  0.00000000       0.020
   0.50000000  0.00000000  0.00000000       0.010
   0.10000000  0.10000000  0.00000000       0.020
   0.20000000  0.10000000  0.00000000       0.040
   0.30000000  0.10000000  0.00000000       0.040
   0.40000000  0.10000000  0.00000000       0.040
   0.20000000  0.20000000  0.00000000       0.020
   0.30000000  0.20000000  0.00000000       0.040
   0.40000000  0.20000000  0.00000000       0.020
   0.30000000  0.30000000  0.00000000       0.020
   0.00000000  0.00000000  0.33333333       0.007
   0.10000000  0.00000000  0.33333333       0.040
   0.20000000  0.00000000  0.33333333       0.040
   0.30000000  0.00000000  0.33333333       0.040
   0.40000000  0.00000000  0.33333333       0.040
   0.50000000  0.00000000  0.33333333       0.020
   0.10000000  0.10000000  0.33333333       0.040
   0.20000000  0.10000000  0.33333333       0.080
   0.30000000  0.10000000  0.33333333       0.080
   0.40000000  0.10000000  0.33333333       0.080
   0.20000000  0.20000000  0.33333333       0.040
   0.30000000  0.20000000  0.33333333       0.080
   0.40000000  0.20000000  0.33333333       0.040
   0.30000000  0.30000000  0.33333333       0.040

 position of ions in fractional coordinates (direct lattice)
   0.33333300  0.66666700  0.25000000
   0.66666700  0.33333300  0.75000000
   0.33333300  0.66666700  0.86743573
   0.66666700  0.33333300  0.13256427
   0.66666600  0.33333300  0.36743573
   0.33333400  0.66666700  0.63256427

 position of ions in cartesian coordinates  (Angst):
  -0.00000160  1.84306115  3.32038719
   1.59613847  0.92152919  9.96116157
  -0.00000160  1.84306115 11.52088992
   1.59613847  0.92152919  1.76065884
   1.59613528  0.92152919  4.88011554
   0.00000160  1.84306115  8.40143322

 k-point  1 :   0.0000 0.0000 0.0000  plane waves:    2589
 k-point  2 :   0.1000 0.0000 0.0000  plane waves:    2577
 k-point  3 :   0.2000 0.0000 0.0000  plane waves:    2555
 k-point  4 :   0.3000 0.0000 0.0000  plane waves:    2540
 k-point  5 :   0.4000 0.0000 0.0000  plane waves:    2520
 k-point  6 :   0.5000 0.0000 0.0000  plane waves:    2508
 k-point  7 :   0.1000 0.1000 0.0000  plane waves:    2565
 k-point  8 :   0.2000 0.1000 0.0000  plane waves:    2539
 k-point  9 :   0.3000 0.1000 0.0000  plane waves:    2537
 k-point 10 :   0.4000 0.1000 0.0000  plane waves:    2526
 k-point 11 :   0.2000 0.2000 0.0000  plane waves:    2545
 k-point 12 :   0.3000 0.2000 0.0000  plane waves:    2534
 k-point 13 :   0.4000 0.2000 0.0000  plane waves:    2532
 k-point 14 :   0.3000 0.3000 0.0000  plane waves:    2526
 k-point 15 :   0.0000 0.0000 0.3333  plane waves:    2584
 k-point 16 :   0.1000 0.0000 0.3333  plane waves:    2580
 k-point 17 :   0.2000 0.0000 0.3333  plane waves:    2555
 k-point 18 :   0.3000 0.0000 0.3333  plane waves:    2539
 k-point 19 :   0.4000 0.0000 0.3333  plane waves:    2529
 k-point 20 :   0.5000 0.0000 0.3333  plane waves:    2510
 k-point 21 :   0.1000 0.1000 0.3333  plane waves:    2566
 k-point 22 :   0.2000 0.1000 0.3333  plane waves:    2548
 k-point 23 :   0.3000 0.1000 0.3333  plane waves:    2541
 k-point 24 :   0.4000 0.1000 0.3333  plane waves:    2522
 k-point 25 :   0.2000 0.2000 0.3333  plane waves:    2551
 k-point 26 :   0.3000 0.2000 0.3333  plane waves:    2531
 k-point 27 :   0.4000 0.2000 0.3333  plane waves:    2528
 k-point 28 :   0.3000 0.3000 0.3333  plane waves:    2542

 maximum and minimum number of plane-waves per node :      1310     1237

 maximum number of plane-waves:      2589
 maximum index in each direction:
   IXMAX=    5   IYMAX=    5   IZMAX=   22
   IXMIN=   -6   IYMIN=   -5   IZMIN=  -23

 parallel 3D FFT for wavefunctions:
    minimum data exchange during FFTs selected (reduces bandwidth)
 parallel 3D FFT for charge:
    minimum data exchange during FFTs selected (reduces bandwidth)

 Broyden mixing: mesh for mixing (old mesh)
   NGX = 11   NGY = 11   NGZ = 45
  (NGX  = 48   NGY  = 48   NGZ  =192)
  gives a total of   5445 points

 initial charge density was supplied:
 charge density of overlapping atoms calculated
 number of electron      36.0000000 magnetization
 keeping initial charge density in first step

 Maximum index for augmentation-charges         7393 (set IRDMAX)

 First call to EWALD:  gamma=   0.362
 Maximum number of real-space cells 4x 4x 1
 Maximum number of reciprocal cells 2x 2x 7

--------------------------------------- Iteration      1(   1)  ---------------------------------------

 BZINTS: Fermi energy: 15.731713; 36.000000 electrons
         Band energy: 199.219014;  BLOECHL correction: -0.241083

 eigenvalue-minimisations  :  1232
 total energy-change (2. order) : 0.1914205E+03  (-0.1484582E+04)
 number of electron      36.0000000 magnetization
 augmentation part       36.0000000 magnetization

 Free energy of the ion-electron system (eV)
  alpha Z        PSCENC =       101.17761570
  Ewald energy   TEWEN  =     -1410.01026994
  -Hartree energ DENC   =      -323.92110904
  -exchange      EXHF   =         0.00000000
  -V(xc)+E(xc)   XCENC  =       -72.44653957
  PAW double counting   =       813.77302396     -658.68146406
  entropy T*S    EENTRO =         0.00000000
  eigenvalues    EBANDS =       199.21901432
  atomic energy  EATOM  =      1542.31022798
  Solvation  Ediel_sol  =         0.00000000
  free energy    TOTEN  =       191.42049936 eV

  energy without entropy =      191.42049936  energy(sigma->0) =      191.42049936

[...]

 eigenvalue-minimisations  :  1660
 total energy-change (2. order) :-0.2208666E+03  (-0.2143986E+03)
 number of electron      36.0000000 magnetization
 augmentation part       36.0000000 magnetization

[...]

 Broyden mixing:
  rms(total) = 0.97252E+00    rms(broyden)= 0.97251E+00
  rms(prec ) = 0.12716E+01
  weight for this iteration     100.00

[...]

 eigenvalues of (default mixing * dielectric matrix)
  average eigenvalue GAMMA=   0.8786
  0.8786

[...]

 eigenvalue-minimisations  :  1362
 total energy-change (2. order) :-0.1043651E-05  (-0.1298263E-05)
 number of electron      36.0000004 magnetization
 augmentation part       -1.0999275 magnetization

 Broyden mixing:
  rms(total) = 0.38311E-03    rms(broyden)= 0.38310E-03
  rms(prec ) = 0.56143E-03
  weight for this iteration     100.00

 eigenvalues of (default mixing * dielectric matrix)
  average eigenvalue GAMMA=   1.6246
  3.3155  2.6220  1.9908  1.9908  1.3375  1.3375  0.9336  0.9336  0.8926  0.8926

[...]

--------------------------------------- Iteration      1(  16)  ---------------------------------------

[...]

 eigenvalue-minimisations  :  1018
 total energy-change (2. order) : 0.6951905E-06  (-0.2474994E-06)
 number of electron      36.0000004 magnetization
 augmentation part       -1.0999275 magnetization

 Free energy of the ion-electron system (eV)
  alpha Z        PSCENC =       101.17761570
  Ewald energy   TEWEN  =     -1410.01026994
  -Hartree energ DENC   =      -328.89088651
  -exchange      EXHF   =         0.00000000
  -V(xc)+E(xc)   XCENC  =       -70.28910587
  PAW double counting   =       945.71525733     -794.11281068
  entropy T*S    EENTRO =         0.00000000
  eigenvalues    EBANDS =       -29.49006955
  atomic energy  EATOM  =      1542.31022798
  Solvation  Ediel_sol  =         0.00000000
  free energy    TOTEN  =       -43.59004154 eV

  energy without entropy =      -43.59004154  energy(sigma->0) =      -43.59004154

 average (electrostatic) potential at core
  the test charge radii are     1.2296  0.9698
  (the norm of the test charge is              1.0000)
       1 -39.2527       2 -39.2527       3 -87.0995       4 -87.0995       5 -87.0995
       6 -87.0995

 E-fermi :   4.6459     XC(G=0): -10.1212     alpha+bet :-10.7826

 k-point     1 :       0.0000    0.0000    0.0000
  band No.  band energies     occupation
      1      -9.9104      2.00000
      2      -9.8111      2.00000
      3      -8.7227      2.00000
      4      -8.5547      2.00000
      5      -1.6488      2.00000
      6      -1.1252      2.00000
      7       1.5627      2.00000
      8       1.5627      2.00000
      9       1.5667      2.00000
     10       1.5667      2.00000
     11       1.8332      2.00000
     12       2.6692      2.00000
     13       2.6692      2.00000
     14       2.6834      2.00000
     15       2.6834      2.00000
     16       3.2209      2.00000
     17       3.8692      2.00000
     18       4.6298      2.00000
     19       6.9475      0.00000
     20       6.9628      0.00000
     21       7.0006      0.00000
     22       7.1631      0.00000

[...]

 k-point    28 :       0.3000    0.3000    0.3333
  band No.  band energies     occupation
      1      -7.8766      2.00000
      2      -7.8677      2.00000
      3      -7.6881      2.00000
      4      -7.6787      2.00000
      5      -1.1106      2.00000
      6      -1.0811      2.00000
      7      -0.6224      2.00000
      8      -0.5858      2.00000
      9       0.3720      2.00000
     10       0.3984      2.00000
     11       0.6482      2.00000
     12       0.7110      2.00000
     13       1.1996      2.00000
     14       1.2978      2.00000
     15       2.1269      2.00000
     16       2.2053      2.00000
     17       4.0330      2.00000
     18       4.0670      2.00000
     19       5.9390      0.00000
     20       5.9571      0.00000
     21       7.1132      0.00000
     22       7.3535      0.00000

 soft charge-density along one line, spin component           1
         0         1         2         3         4         5         6         7         8         9
 total charge-density along one line

------------------------ aborting loop because EDIFF is reached ----------------------------------------

  DFT-D2 method for vdW energy calculation

  Parameters of vdW forcefield:
         C6(Jnm^6/mol)     R0(A)
   Mo      24.670          1.639
   S        5.570          1.683

  IVDW =   1
  VDW_RADIUS =    50.000 A
  VDW_S6 =     0.750
  VDW_SR =     1.000
  VDW_D =    20.000
  LVDW_EWALD = F

  Number of pair interactions contributing to vdW energy:   93814
  Edisp (eV):   -1.45586

  FORCE on cell =-STRESS in cart. coord.  units (eV):
  Direction    XX          YY          ZZ          XY          YZ          ZX
  Alpha Z   101.17762   101.17762   101.17762
  Ewald    -274.78654  -274.78567  -860.43961     0.00038     0.00000     0.00024
  Hartree   252.87934   252.87935  -176.86206     0.00003     0.00000    -0.00001
  E(xc)    -140.72858  -140.72859  -141.79930    -0.00001     0.00000    -0.00000
  Local    -615.79097  -615.79154   387.88230    -0.00032     0.00000    -0.00011
  n-local   254.59990   251.69964   263.42020    -0.47524     0.01711     0.01424
  augment   -51.15269   -51.15267   -53.34250     0.00003     0.00000    -0.00001
  Kinetic   472.58384   477.04491   480.28650   -14.83209     0.02537     0.02601
  Fock        0.00000     0.00000     0.00000     0.00000     0.00000     0.00000
  vdW         0.04208     0.04208    -1.31985     0.00000     0.00000    -0.00000
  Total      -0.39544    -0.39544    -0.99671    -0.00000    -0.00000     0.00000
  in kB      -5.40523    -5.40523   -13.62379    -0.00000    -0.00000     0.00000

 VOLUME and BASIS-vectors are now :
  energy-cutoff  :      450.00
  volume of cell :      117.21
      direct lattice vectors                 reciprocal lattice vectors
     3.192273748  0.000000000  0.000000000     0.313256343  0.180858622  0.000000000
    -1.596136874  2.764590347  0.000000000    -0.000000000  0.361717244  0.000000000
     0.000000000  0.000000000 13.281548762     0.000000000  0.000000000  0.075292424

  length of vectors
     3.192273748  3.192273908 13.281548762     0.361717262  0.361717244  0.075292424

 FORCES acting on ions
    electron-ion (+dipol)            ewald-force                    non-local-force                 convergence-correction
   0.525E-04 -.427E-04 -.988E-05   0.938E-04 -.100E-03 0.292E-09   -.156E-16 0.139E-16 0.000E+00   0.481E-08 -.599E-08 -.241E-09
   0.723E-04 -.294E-04 -.988E-05   -.938E-04 0.100E-03 -.292E-09   0.260E-16 -.139E-16 0.000E+00   0.191E-08 0.211E-08 -.242E-09
   0.521E-03 -.304E-03 -.187E+03   0.884E-04 -.508E-04 0.192E+03   -.338E-16 0.156E-16 -.476E+01   0.104E-07 -.663E-08 0.348E-02
   -.118E-02 0.684E-03 0.187E+03   -.884E-04 0.508E-04 -.192E+03   0.234E-16 -.156E-16 0.476E+01   -.234E-07 0.141E-07 -.348E-02
   0.546E-03 0.680E-03 -.187E+03   -.552E-05 0.508E-04 0.192E+03   0.399E-16 0.113E-16 -.476E+01   0.916E-08 0.131E-07 0.348E-02
   -.119E-02 -.308E-03 0.187E+03   0.552E-05 -.508E-04 -.192E+03   -.390E-16 -.113E-16 0.476E+01   -.187E-07 -.763E-08 -.348E-02
   -.118E-02 0.680E-03 -.107E-04   0.126E-13 0.229E-13 0.284E-13   0.867E-18 0.000E+00 0.000E+00   -.158E-07 0.913E-08 -.663E-09

 POSITION                                       TOTAL-FORCE (eV/Angst)
     -0.00000      1.84306      3.32039        -0.000000      0.000000      0.000000
      1.59614      0.92153      9.96116        -0.000000      0.000000      0.000000
     -0.00000      1.84306     11.52089        -0.000000      0.000000      0.012344
      1.59614      0.92153      1.76066         0.000000     -0.000000     -0.012344
      1.59614      0.92153      4.88012         0.000000     -0.000000      0.012344
      0.00000      1.84306      8.40143        -0.000000      0.000000     -0.012344
    total drift:                               -0.001178      0.000680     -0.000011

  FREE ENERGIE OF THE ION-ELECTRON SYSTEM (eV)
  free  energy   TOTEN  =       -45.04590055 eV

  energy  without entropy=      -45.04590055  energy(sigma->0) =      -45.04590055

 BZINTS: Fermi energy:  4.645927; 36.000000 electrons
         Band energy: -29.490070;  BLOECHL correction:  0.000000