 vasp.5.4.4.18Apr17-6-g9f103f2a35 (build Jun 30 2017 11:15:00) complex

 executed on    STALLO_VASP_5.4.4 date 2019.11.08  12:18:47

 INCAR:
 POTCAR:   PAW_PBE Mo 08Apr2002
 POTCAR:    PAW_PBE S 17Jan2003
 POTCAR:   PAW_PBE Mo 08Apr2002
   VRHFIN =Mo: 4p5s4d

   TITEL  = PAW_PBE Mo 08Apr2002
   POMASS =   95.940; ZVAL   =    6.000    mass and valenz
   ENMAX  =  224.584; ENMIN  =  168.438 eV
   QCUT   =   -4.063; QGAM   =    8.126    optimization parameters

   Description
     l     E      TYP  RCUT    TYP  RCUT
     2   .000     23  2.500
     2   .000     23  2.500
     0   .000     23  2.600
     0  1.000     23  2.600
     1   .400     23  2.750
     1  2.000     23  2.750
     3   .000      7   .000

 POTCAR:    PAW_PBE S 17Jan2003
   VRHFIN =S : s2p4

   TITEL  = PAW_PBE S 17Jan2003
   POMASS =   32.066; ZVAL   =    6.000    mass and valenz
   ENMAX  =  280.000; ENMIN  =  194.016 eV
   QCUT   =   -4.360; QGAM   =    8.721    optimization parameters

   Description
     l     E      TYP  RCUT    TYP  RCUT
     0   .000     23  1.900
     0   .000     23  1.900
     1   .000     23  1.900
     1   .000     23  1.900
     2   .000     23  1.900

 PAW_PBE Mo 08Apr2002                   :
  PAW_PBE S 17Jan2003                   :

 POSCAR: MoS2_mp-2815_computed
  positions in direct lattice
 exchange correlation table for  LEXCH =        8
   RHO(1)=    0.500       N(1)  =     2000
   RHO(2)=  100.500       N(2)  =     4000

 ion  position               nearest neighbor table
   1  0.333  0.667  0.250-   5 2.42   4 2.42   4 2.42   5 2.42   5 2.42   4 2.42
   2  0.667  0.333  0.750-   6 2.42   3 2.42   3 2.42   6 2.42   6 2.42   3 2.42
   3  0.333  0.667  0.855-   2 2.42   2 2.42   2 2.42
   4  0.667  0.333  0.145-   1 2.42   1 2.42   1 2.42
   5  0.667  0.333  0.355-   1 2.42   1 2.42   1 2.42
   6  0.333  0.667  0.645-   2 2.42   2 2.42   2 2.42

  LATTYP: Found a hexagonal cell.
 ALAT       =     3.1903157300
 C/A-ratio  =     4.6638030713

  Lattice vectors:

 A1 = (   3.1903157300,   0.0000000000,   0.0000000000)
 A2 = (  -1.5951578650,   2.7628944683,   0.0000000000)
 A3 = (   0.0000000000,   0.0000000000,  14.8790043000)

Analysis of symmetry for initial positions (statically):
 Subroutine PRICEL returns:
 Original cell was already a primitive cell.

 Routine SETGRP: Setting up the symmetry group for a
 hexagonal supercell.

 Subroutine GETGRP returns: Found 24 space group operations
 (whereof 12 operations were pure point group operations)
 out of a pool of 24 trial point group operations.

The static configuration has the point symmetry D_3d.
 The point group associated with its full space group is D_6h.

Analysis of symmetry for dynamics (positions and initial velocities):
 Subroutine PRICEL returns:
 Original cell was already a primitive cell.

 Routine SETGRP: Setting up the symmetry group for a
 hexagonal supercell.

 Subroutine GETGRP returns: Found 24 space group operations
 (whereof 12 operations were pure point group operations)
 out of a pool of 24 trial point group operations.

The dynamic configuration has the point symmetry D_3d.
 The point group associated with its full space group is D_6h.

 Subroutine INISYM returns: Found 24 space group operations
 (whereof 12 operations are pure point group operations),
 and found     1 'primitive' translations

 KPOINTS: k-density: 5.0

Automatic generation of k-mesh.
Space group operators:
 irot       det(A)        alpha          n_x          n_y          n_z        tau_x        tau_y        tau_z
    1     1.000000     0.000001     1.000000     0.000000     0.000000     0.000000     0.000000     0.000000
    2    -1.000000     0.000001     1.000000     0.000000     0.000000     0.000000     0.000000     0.000000
    3     1.000000   120.000000     0.000000     0.000000    -1.000000     0.000000     0.000000     0.000000
    4    -1.000000   120.000000     0.000000     0.000000    -1.000000     0.000000     0.000000     0.000000
    5     1.000000   120.000000     0.000000     0.000000     1.000000     0.000000     0.000000     0.000000
    6    -1.000000   120.000000     0.000000     0.000000     1.000000     0.000000     0.000000     0.000000
    7     1.000000   179.999999     1.000000    -0.000000     0.000000     0.000000     0.000000     0.000000
    8    -1.000000   179.999999     1.000000    -0.000000     0.000000     0.000000     0.000000     0.000000
    9     1.000000   180.000000     0.500000    -0.866025     0.000000     0.000000     0.000000     0.000000
   10    -1.000000   180.000000     0.500000    -0.866025     0.000000     0.000000     0.000000     0.000000
   11     1.000000   180.000000    -0.500000    -0.866025     0.000000     0.000000     0.000000     0.000000
   12    -1.000000   180.000000    -0.500000    -0.866025     0.000000     0.000000     0.000000     0.000000
   13     1.000000    60.000000     0.000000     0.000000    -1.000000     0.000001     0.000000     0.500000
   14    -1.000000    60.000000     0.000000     0.000000    -1.000000     0.000001     0.000000     0.500000
   15     1.000000   180.000000     0.000000     0.000000     1.000000     0.000000     0.000000     0.500000
   16    -1.000000   180.000000     0.000000     0.000000     1.000000     0.000000     0.000000     0.500000
   17     1.000000    60.000000     0.000000     0.000000     1.000000     0.000000     0.000000     0.500000
   18    -1.000000    60.000000     0.000000     0.000000     1.000000     0.000000     0.000000     0.500000
   19     1.000000   179.999999     0.866025    -0.500000     0.000000     0.000000     0.000000     0.500000
   20    -1.000000   179.999999     0.866025    -0.500000     0.000000     0.000000     0.000000     0.500000
   21     1.000000   180.000000     0.000000     1.000000     0.000000     0.000001     0.000000     0.500000
   22    -1.000000   180.000000     0.000000     1.000000     0.000000     0.000001     0.000000     0.500000
   23     1.000000   179.999999     0.866025     0.500000     0.000000     0.000000     0.000000     0.500000
   24    -1.000000   179.999999     0.866025     0.500000     0.000000     0.000000     0.000000     0.500000

 Subroutine IBZKPT returns following result:

 Found     28 irreducible k-points:

 Following reciprocal coordinates:
            Coordinates               Weight
  0.000000  0.000000  0.000000      1.000000
  0.100000 -0.000000  0.000000      6.000000
  0.200000  0.000000  0.000000      6.000000
  0.300000 -0.000000  0.000000      6.000000
  0.400000  0.000000  0.000000      6.000000
  0.500000  0.000000  0.000000      3.000000
  0.100000  0.100000  0.000000      6.000000
  0.200000  0.100000  0.000000     12.000000
  0.300000  0.100000  0.000000     12.000000
  0.400000  0.100000  0.000000     12.000000
  0.200000  0.200000  0.000000      6.000000
  0.300000  0.200000  0.000000     12.000000
  0.400000  0.200000  0.000000      6.000000
  0.300000  0.300000  0.000000      6.000000
  0.000000  0.000000  0.333333      2.000000
  0.100000 -0.000000  0.333333     12.000000
  0.200000  0.000000  0.333333     12.000000
  0.300000 -0.000000  0.333333     12.000000
  0.400000  0.000000  0.333333     12.000000
  0.500000  0.000000  0.333333      6.000000
  0.100000  0.100000  0.333333     12.000000
  0.200000  0.100000  0.333333     24.000000
  0.300000  0.100000  0.333333     24.000000
  0.400000  0.100000  0.333333     24.000000
  0.200000  0.200000  0.333333     12.000000
  0.300000  0.200000  0.333333     24.000000
  0.400000  0.200000  0.333333     12.000000
  0.300000  0.300000  0.333333     12.000000

 Following cartesian coordinates:
            Coordinates               Weight
  0.000000  0.000000  0.000000      1.000000
  0.031345  0.018097  0.000000      6.000000
  0.062690  0.036194  0.000000      6.000000
  0.094035  0.054291  0.000000      6.000000
  0.125379  0.072388  0.000000      6.000000
  0.156724  0.090485  0.000000      3.000000
  0.031345  0.054291  0.000000      6.000000
  0.062690  0.072388  0.000000     12.000000
  0.094035  0.090485  0.000000     12.000000
  0.125379  0.108582  0.000000     12.000000
  0.062690  0.108582  0.000000      6.000000
  0.094035  0.126679  0.000000     12.000000
  0.125379  0.144776  0.000000      6.000000
  0.094035  0.162873  0.000000      6.000000
  0.000000  0.000000  0.022403      2.000000
  0.031345  0.018097  0.022403     12.000000
  0.062690  0.036194  0.022403     12.000000
  0.094035  0.054291  0.022403     12.000000
  0.125379  0.072388  0.022403     12.000000
  0.156724  0.090485  0.022403      6.000000
  0.031345  0.054291  0.022403     12.000000
  0.062690  0.072388  0.022403     24.000000
  0.094035  0.090485  0.022403     24.000000
  0.125379  0.108582  0.022403     24.000000
  0.062690  0.108582  0.022403     12.000000
  0.094035  0.126679  0.022403     24.000000
  0.125379  0.144776  0.022403     12.000000
  0.094035  0.162873  0.022403     12.000000

 TETIRR: Found    265 inequivalent tetrahedra from     1800

 SYSTEM =  unknown system
 POSCAR =  MoS2_mp-2815_computed

 Startparameter for this run:
   NWRITE =      2    write-flag & timer
   PREC   = normal    normal or accurate (medium, high low for compatibility)
   ISTART =      0    job   : 0-new  1-cont  2-samecut
   ICHARG =      2    charge: 1-file 2-atom 10-const
   ISPIN  =      1    spin polarized calculation?
   LNONCOLLINEAR =      F non collinear calculations
   LSORBIT =      F    spin-orbit coupling
   INIWAV =      1    electr: 0-lowe 1-rand  2-diag
   LASPH  =      F    aspherical Exc in radial PAW
   METAGGA=      F    non-selfconsistent MetaGGA calc.

 Electronic Relaxation 1
   ENCUT  =  450.0 eV  33.07 Ry    5.75 a.u.   5.52  5.52 25.74*2*pi/ulx,y,z
   ENINI  =  450.0     initial cutoff
   ENAUG  =  345.3 eV  augmentation charge cutoff
   NELM   =     60;   NELMIN=  4; NELMDL=  0     # of ELM steps
   EDIFF  = 0.1E-04   stopping-criterion for ELM
   LREAL  =      F    real-space projection
   NLSPLINE    = F    spline interpolate recip. space projectors
   LCOMPAT=      F    compatible to vasp.4.4
   GGA_COMPAT  = T    GGA compatible to vasp.4.4-vasp.4.6
   LMAXPAW     = -100 max onsite density
   LMAXMIX     =    2 max onsite mixed and CHGCAR
   VOSKOWN=      0    Vosko Wilk Nusair interpolation
   ROPT   =    0.00000   0.00000
 Ionic relaxation
   EDIFFG = 0.1E-03   stopping-criterion for IOM
   NSW    =      0    number of steps for IOM
   NBLOCK =      1;   KBLOCK =      1    inner block; outer block
   IBRION =     -1    ionic relax: 0-MD 1-quasi-New 2-CG
   NFREE  =      0    steps in history (QN), initial steepest desc. (CG)
   ISIF   =      2    stress and relaxation
   IWAVPR =     10    prediction:  0-non 1-charg 2-wave 3-comb
   ISYM   =      2    0-nonsym 1-usesym 2-fastsym
   LCORR  =      T    Harris-Foulkes like correction to forces

   POTIM  = 0.5000    time-step for ionic-motion
   TEIN   =    0.0    initial temperature
   TEBEG  =    0.0;   TEEND  =   0.0 temperature during run
   SMASS  =  -3.00    Nose mass-parameter (am)
   estimated Nose-frequenzy (Omega)   =  0.10E-29 period in steps =****** mass=  -0.233E-27a.u.
   SCALEE = 1.0000    scale energy and forces
[...]
   LLRAUG    =     F  two centre corrections for induced B field

 Static calculation
 charge density and potential will be updated during run
 non-spin polarized calculation
 RMM-DIIS sequential band-by-band and
  variant of blocked Davidson during initial phase
 perform sub-space diagonalisation
    before iterative eigenvector-optimisation
 modified Broyden-mixing scheme, WC =      100.0
 initial mixing is a Kerker type mixing with AMIX =  0.4000 and BMIX =      1.0000
 Hartree-type preconditioning will be used
 using additional bands            4
 reciprocal scheme for non local part
 use partial core corrections
 calculate Harris-corrections to forces
   (improved forces if not selfconsistent)
 use gradient corrections
 use of overlap-Matrix (Vanderbilt PP)
 Fermi weights with tetrahedron method with Bloechl corrections

  energy-cutoff  :      450.00
  volume of cell :      131.15
      direct lattice vectors                 reciprocal lattice vectors
     3.190315730  0.000000000  0.000000000     0.313448600  0.180969634  0.000000000
    -1.595157865  2.762894468  0.000000000     0.000000000  0.361939267  0.000000000
     0.000000000  0.000000000 14.879004300     0.000000000  0.000000000  0.067208798

  length of vectors
     3.190315730  3.190315730 14.879004300     0.361939267  0.361939267  0.067208798

 k-points in units of 2pi/SCALE and weight: k-density: 5.0
   0.00000000  0.00000000  0.00000000       0.003
   0.03134486  0.01809696  0.00000000       0.020
   0.06268972  0.03619393  0.00000000       0.020
   0.09403458  0.05429089  0.00000000       0.020
   0.12537944  0.07238785  0.00000000       0.020
   0.15672430  0.09048482  0.00000000       0.010
   0.03134486  0.05429089  0.00000000       0.020
   0.06268972  0.07238785  0.00000000       0.040
   0.09403458  0.09048482  0.00000000       0.040
   0.12537944  0.10858178  0.00000000       0.040
   0.06268972  0.10858178  0.00000000       0.020
   0.09403458  0.12667874  0.00000000       0.040
   0.12537944  0.14477571  0.00000000       0.020
   0.09403458  0.16287267  0.00000000       0.020
   0.00000000  0.00000000  0.02240293       0.007
   0.03134486  0.01809696  0.02240293       0.040
   0.06268972  0.03619393  0.02240293       0.040
   0.09403458  0.05429089  0.02240293       0.040
   0.12537944  0.07238785  0.02240293       0.040
   0.15672430  0.09048482  0.02240293       0.020
   0.03134486  0.05429089  0.02240293       0.040
   0.06268972  0.07238785  0.02240293       0.080
   0.09403458  0.09048482  0.02240293       0.080
   0.12537944  0.10858178  0.02240293       0.080
   0.06268972  0.10858178  0.02240293       0.040
   0.09403458  0.12667874  0.02240293       0.080
   0.12537944  0.14477571  0.02240293       0.040
   0.09403458  0.16287267  0.02240293       0.040

 k-points in reciprocal lattice and weights: k-density: 5.0
   0.00000000  0.00000000  0.00000000       0.003
   0.10000000 -0.00000000  0.00000000       0.020
   0.20000000  0.00000000  0.00000000       0.020
   0.30000000 -0.00000000  0.00000000       0.020
   0.40000000  0.00000000  0.00000000       0.020
   0.50000000  0.00000000  0.00000000       0.010
   0.10000000  0.10000000  0.00000000       0.020
   0.20000000  0.10000000  0.00000000       0.040
   0.30000000  0.10000000  0.00000000       0.040
   0.40000000  0.10000000  0.00000000       0.040
   0.20000000  0.20000000  0.00000000       0.020
   0.30000000  0.20000000  0.00000000       0.040
   0.40000000  0.20000000  0.00000000       0.020
   0.30000000  0.30000000  0.00000000       0.020
   0.00000000  0.00000000  0.33333333       0.007
   0.10000000 -0.00000000  0.33333333       0.040
   0.20000000  0.00000000  0.33333333       0.040
   0.30000000 -0.00000000  0.33333333       0.040
   0.40000000  0.00000000  0.33333333       0.040
   0.50000000  0.00000000  0.33333333       0.020
   0.10000000  0.10000000  0.33333333       0.040
   0.20000000  0.10000000  0.33333333       0.080
   0.30000000  0.10000000  0.33333333       0.080
   0.40000000  0.10000000  0.33333333       0.080
   0.20000000  0.20000000  0.33333333       0.040
   0.30000000  0.20000000  0.33333333       0.080
   0.40000000  0.20000000  0.33333333       0.040
   0.30000000  0.30000000  0.33333333       0.040

 position of ions in fractional coordinates (direct lattice)
   0.33333300  0.66666700  0.25000000
   0.66666700  0.33333300  0.75000000
   0.33333300  0.66666700  0.85517400
   0.66666700  0.33333300  0.14482600
   0.66666600  0.33333300  0.35517400
   0.33333400  0.66666700  0.64482600

 position of ions in cartesian coordinates  (Angst):
  -0.00000160  1.84193057  3.71975108
   1.59515946  0.92096390 11.15925323
  -0.00000160  1.84193057 12.72413762
   1.59515946  0.92096390  2.15486668
   1.59515627  0.92096390  5.28463547
   0.00000160  1.84193057  9.59436883

 k-point  1 :   0.0000 0.0000 0.0000  plane waves:    2895
 k-point  2 :   0.1000-0.0000 0.0000  plane waves:    2891
 k-point  3 :   0.2000 0.0000 0.0000  plane waves:    2857
 k-point  4 :   0.3000-0.0000 0.0000  plane waves:    2846
 k-point  5 :   0.4000 0.0000 0.0000  plane waves:    2832
 k-point  6 :   0.5000 0.0000 0.0000  plane waves:    2784
 k-point  7 :   0.1000 0.1000 0.0000  plane waves:    2877
 k-point  8 :   0.2000 0.1000 0.0000  plane waves:    2849
 k-point  9 :   0.3000 0.1000 0.0000  plane waves:    2839
 k-point 10 :   0.4000 0.1000 0.0000  plane waves:    2820
 k-point 11 :   0.2000 0.2000 0.0000  plane waves:    2847
 k-point 12 :   0.3000 0.2000 0.0000  plane waves:    2832
 k-point 13 :   0.4000 0.2000 0.0000  plane waves:    2826
 k-point 14 :   0.3000 0.3000 0.0000  plane waves:    2842
 k-point 15 :   0.0000 0.0000 0.3333  plane waves:    2890
 k-point 16 :   0.1000-0.0000 0.3333  plane waves:    2885
 k-point 17 :   0.2000 0.0000 0.3333  plane waves:    2856
 k-point 18 :   0.3000-0.0000 0.3333  plane waves:    2838
 k-point 19 :   0.4000 0.0000 0.3333  plane waves:    2832
 k-point 20 :   0.5000 0.0000 0.3333  plane waves:    2814
 k-point 21 :   0.1000 0.1000 0.3333  plane waves:    2870
 k-point 22 :   0.2000 0.1000 0.3333  plane waves:    2851
 k-point 23 :   0.3000 0.1000 0.3333  plane waves:    2844
 k-point 24 :   0.4000 0.1000 0.3333  plane waves:    2824
 k-point 25 :   0.2000 0.2000 0.3333  plane waves:    2841
 k-point 26 :   0.3000 0.2000 0.3333  plane waves:    2835
 k-point 27 :   0.4000 0.2000 0.3333  plane waves:    2830
 k-point 28 :   0.3000 0.3000 0.3333  plane waves:    2831

 maximum and minimum number of plane-waves per node :      1449     1385

 maximum number of plane-waves:      2895
 maximum index in each direction:
   IXMAX=    5   IYMAX=    5   IZMAX=   25
   IXMIN=   -6   IYMIN=   -5   IZMIN=  -26

 parallel 3D FFT for wavefunctions:
    minimum data exchange during FFTs selected (reduces bandwidth)
 parallel 3D FFT for charge:
    minimum data exchange during FFTs selected (reduces bandwidth)

 Broyden mixing: mesh for mixing (old mesh)
   NGX = 11   NGY = 11   NGZ = 51
  (NGX  = 36   NGY  = 36   NGZ  =160)
  gives a total of   6171 points

 initial charge density was supplied:
 charge density of overlapping atoms calculated
 number of electron      36.0000000 magnetization
 keeping initial charge density in first step

 Maximum index for augmentation-charges         3021 (set IRDMAX)

 First call to EWALD:  gamma=   0.349
 Maximum number of real-space cells 5x 5x 1
 Maximum number of reciprocal cells 2x 2x 7

--------------------------------------- Iteration      1(   1)  ---------------------------------------

 BZINTS: Fermi energy: 14.459867; 36.000000 electrons
         Band energy: 166.689400;  BLOECHL correction: -0.252059

 eigenvalue-minimisations  :  1232
 total energy-change (2. order) : 0.1999318E+03  (-0.1475588E+04)
 number of electron      36.0000000 magnetization
 augmentation part       36.0000000 magnetization

 Free energy of the ion-electron system (eV)
  alpha Z        PSCENC =        90.42577596
  Ewald energy   TEWEN  =     -1146.88905665
  -Hartree energ DENC   =      -535.10238363
  -exchange      EXHF   =         0.00000000
  -V(xc)+E(xc)   XCENC  =       -72.59368150
  PAW double counting   =       813.77302396     -658.68146406
  entropy T*S    EENTRO =         0.00000000
  eigenvalues    EBANDS =       166.68939987
  atomic energy  EATOM  =      1542.31022798
  Solvation  Ediel_sol  =         0.00000000
  free energy    TOTEN  =       199.93184195 eV

  energy without entropy =      199.93184195  energy(sigma->0) =      199.93184195

[...]

 eigenvalue-minimisations  :  1664
 total energy-change (2. order) :-0.2282821E+03  (-0.2213364E+03)
 number of electron      36.0000000 magnetization
 augmentation part       36.0000000 magnetization

[...]

 Broyden mixing:
  rms(total) = 0.97344E+00    rms(broyden)= 0.97343E+00
  rms(prec ) = 0.12180E+01
  weight for this iteration     100.00

[...]

 eigenvalues of (default mixing * dielectric matrix)
  average eigenvalue GAMMA=   0.8747
  0.8747

[...]

 eigenvalue-minimisations  :  1171
 total energy-change (2. order) : 0.1008445E-04  (-0.5017727E-05)
 number of electron      36.0000007 magnetization
 augmentation part       -1.1002866 magnetization

 Broyden mixing:
  rms(total) = 0.27701E-03    rms(broyden)= 0.27700E-03
  rms(prec ) = 0.32891E-03
  weight for this iteration     100.00

 eigenvalues of (default mixing * dielectric matrix)
  average eigenvalue GAMMA=   1.5960
  3.1459  2.5331  2.4774  1.6052  1.1016  0.8806  0.8806  0.8696  0.8696

[...]

--------------------------------------- Iteration      1(  15)  ---------------------------------------

[...]

 eigenvalue-minimisations  :   954
 total energy-change (2. order) :-0.6354351E-06  (-0.1171484E-05)
 number of electron      36.0000007 magnetization
 augmentation part       -1.1002866 magnetization

 Free energy of the ion-electron system (eV)
  alpha Z        PSCENC =        90.42577596
  Ewald energy   TEWEN  =     -1146.88905665
  -Hartree energ DENC   =      -542.95361457
  -exchange      EXHF   =         0.00000000
  -V(xc)+E(xc)   XCENC  =       -70.39237911
  PAW double counting   =       944.34227286     -792.72353290
  entropy T*S    EENTRO =         0.00000000
  eigenvalues    EBANDS =       -67.72549211
  atomic energy  EATOM  =      1542.31022798
  Solvation  Ediel_sol  =         0.00000000
  free energy    TOTEN  =       -43.60579853 eV

  energy without entropy =      -43.60579853  energy(sigma->0) =      -43.60579853

 average (electrostatic) potential at core
  the test charge radii are     1.2296  0.9698
  (the norm of the test charge is              1.0000)
       1 -40.3325       2 -40.3325       3 -88.1703       4 -88.1703       5 -88.1703
       6 -88.1703

 E-fermi :   3.3637     XC(G=0):  -9.3248     alpha+bet : -9.6368

 k-point     1 :       0.0000    0.0000    0.0000
  band No.  band energies     occupation
      1     -10.9296      2.00000
      2     -10.9106      2.00000
      3      -9.7292      2.00000
      4      -9.6952      2.00000
      5      -2.5232      2.00000
      6      -2.3617      2.00000
      7       0.5199      2.00000
      8       0.5200      2.00000
      9       0.5205      2.00000
     10       0.5205      2.00000
     11       1.1062      2.00000
     12       1.6250      2.00000
     13       1.6250      2.00000
     14       1.6269      2.00000
     15       1.6269      2.00000
     16       1.6748      2.00000
     17       2.9225      2.00000
     18       3.2984      2.00000
     19       5.8749      0.00000
     20       5.9110      0.00000
     21       6.0192      0.00000
     22       6.0856      0.00000

[...]

 k-point    28 :       0.3000    0.3000    0.3333
  band No.  band energies     occupation
      1      -8.9251      2.00000
      2      -8.9235      2.00000
      3      -8.7473      2.00000
      4      -8.7456      2.00000
      5      -2.1574      2.00000
      6      -2.1513      2.00000
      7      -1.6674      2.00000
      8      -1.6589      2.00000
      9      -0.6734      2.00000
     10      -0.6687      2.00000
     11      -0.3610      2.00000
     12      -0.3440      2.00000
     13       0.1403      2.00000
     14       0.1674      2.00000
     15       1.0767      2.00000
     16       1.0929      2.00000
     17       2.9806      2.00000
     18       2.9900      2.00000
     19       4.8866      0.00000
     20       4.8936      0.00000
     21       6.1222      0.00000
     22       6.2106      0.00000

 soft charge-density along one line, spin component           1
         0         1         2         3         4         5         6         7         8         9
 total charge-density along one line

------------------------ aborting loop because EDIFF is reached ----------------------------------------

  DFT-D2 method for vdW energy calculation

  Parameters of vdW forcefield:
         C6(Jnm^6/mol)     R0(A)
   Mo      24.670          1.639
   S        5.570          1.683

  IVDW =   1
  VDW_RADIUS =    50.000 A
  VDW_S6 =     0.750
  VDW_SR =     1.000
  VDW_D =    20.000
  LVDW_EWALD = F

  Number of pair interactions contributing to vdW energy:   84128
  Edisp (eV):   -1.33129

  FORCE on cell =-STRESS in cart. coord.  units (eV):
  Direction    XX          YY          ZZ          XY          YZ          ZX
  Alpha Z    90.42578    90.42578    90.42578
  Ewald     -12.90873   -12.90785 -1121.07429     0.00038     0.00000     0.00025
  Hartree   466.59140   466.59142  -390.21297     0.00003    -0.00000    -0.00001
  E(xc)    -140.60499  -140.60500  -141.79683    -0.00001    -0.00000    -0.00000
  Local   -1080.53158 -1080.53224   872.56413    -0.00042    -0.00000    -0.00011
  n-local   254.41625   251.48437   263.35198    -0.52076     0.00302     0.00285
  augment   -51.13413   -51.13398   -53.33424     0.00014     0.00000    -0.00001
  Kinetic   472.30759   476.94000   479.58342   -14.91152     0.00482     0.00468
  Fock        0.00000     0.00000     0.00000     0.00000     0.00000     0.00000
  vdW         0.17103     0.17103    -0.86546     0.00000     0.00000    -0.00000
  Total      -0.41693    -0.41693    -1.35850    -0.00000     0.00000     0.00000
  in kB      -5.09332    -5.09332   -16.59579    -0.00000     0.00000     0.00000

 VOLUME and BASIS-vectors are now :
  energy-cutoff  :      450.00
  volume of cell :      131.15
      direct lattice vectors                 reciprocal lattice vectors
     3.190315730  0.000000000  0.000000000     0.313448600  0.180969634  0.000000000
    -1.595157865  2.762894468  0.000000000     0.000000000  0.361939267  0.000000000
     0.000000000  0.000000000 14.879004300     0.000000000  0.000000000  0.067208798

  length of vectors
     3.190315730  3.190315730 14.879004300     0.361939267  0.361939267  0.067208798

 FORCES acting on ions
    electron-ion (+dipol)            ewald-force                    non-local-force                 convergence-correction
   0.473E-04 -.345E-04 -.986E-05   0.928E-04 -.107E-03 0.288E-09   -.191E-16 0.243E-16 -.932E-20   0.559E-08 -.645E-08 -.386E-09
   0.659E-04 -.309E-04 -.986E-05   -.928E-04 0.107E-03 -.288E-09   0.243E-16 -.243E-16 0.254E-20   0.337E-08 0.128E-08 -.387E-09
   0.525E-03 -.305E-03 -.242E+03   0.865E-04 -.537E-04 0.247E+03   0.108E-16 0.347E-17 -.480E+01   0.109E-07 -.671E-08 0.588E-02
   -.117E-02 0.679E-03 0.242E+03   -.865E-04 0.537E-04 -.247E+03   -.113E-16 -.347E-17 0.480E+01   -.275E-07 0.163E-07 -.588E-02
   0.523E-03 0.689E-03 -.242E+03   -.638E-05 0.537E-04 0.247E+03   -.191E-16 0.434E-17 -.480E+01   0.122E-07 0.149E-07 0.588E-02
   -.121E-02 -.292E-03 0.242E+03   0.638E-05 -.537E-04 -.247E+03   0.191E-16 -.434E-17 0.480E+01   -.240E-07 -.812E-08 -.588E-02
   -.122E-02 0.706E-03 -.111E-04   -.561E-14 0.109E-13 0.284E-13   0.477E-17 0.000E+00 -.888E-15   -.194E-07 0.112E-07 -.657E-09

 POSITION                                       TOTAL-FORCE (eV/Angst)
     -0.00000      1.84193      3.71975         0.000000      0.000000      0.000000
      1.59516      0.92096     11.15925         0.000000      0.000000      0.000000
     -0.00000      1.84193     12.72414        -0.000000      0.000000     -0.085264
      1.59516      0.92096      2.15487         0.000000     -0.000000      0.085264
      1.59516      0.92096      5.28464         0.000000     -0.000000     -0.085264
      0.00000      1.84193      9.59437        -0.000000      0.000000      0.085264
    total drift:                               -0.001223      0.000706     -0.000011

  FREE ENERGIE OF THE ION-ELECTRON SYSTEM (eV)
  free  energy   TOTEN  =       -44.93708555 eV

  energy  without entropy=      -44.93708555  energy(sigma->0) =      -44.93708555

 BZINTS: Fermi energy:  3.363670; 36.000000 electrons
         Band energy: -67.725492;  BLOECHL correction:  0.000000