 vasp.5.4.4.18Apr17-6-g9f103f2a35 (build Jun 30 2017 11:15:00) complex

 executed on    STALLO_VASP_5.4.4 date 2019.11.08  15:27:22

 INCAR:
 POTCAR:   PAW_PBE Mo 08Apr2002
 POTCAR:    PAW_PBE S 17Jan2003
 POTCAR:   PAW_PBE Mo 08Apr2002
   VRHFIN =Mo: 4p5s4d

   TITEL  = PAW_PBE Mo 08Apr2002
   POMASS =   95.940; ZVAL   =    6.000    mass and valenz
   ENMAX  =  224.584; ENMIN  =  168.438 eV
   QCUT   =   -4.063; QGAM   =    8.126    optimization parameters

   Description
     l     E      TYP  RCUT    TYP  RCUT
     2   .000     23  2.500
     2   .000     23  2.500
     0   .000     23  2.600
     0  1.000     23  2.600
     1   .400     23  2.750
     1  2.000     23  2.750
     3   .000      7   .000

 POTCAR:    PAW_PBE S 17Jan2003
   VRHFIN =S : s2p4

   TITEL  = PAW_PBE S 17Jan2003
   POMASS =   32.066; ZVAL   =    6.000    mass and valenz
   ENMAX  =  280.000; ENMIN  =  194.016 eV
   QCUT   =   -4.360; QGAM   =    8.721    optimization parameters

   Description
     l     E      TYP  RCUT    TYP  RCUT
     0   .000     23  1.900
     0   .000     23  1.900
     1   .000     23  1.900
     1   .000     23  1.900
     2   .000     23  1.900

 PAW_PBE Mo 08Apr2002                   :
  PAW_PBE S 17Jan2003                   :

 POSCAR: unknown system
  positions in direct lattice
  velocities in cartesian coordinates
 exchange correlation table for  LEXCH =        8
   RHO(1)=    0.500       N(1)  =     2000
   RHO(2)=  100.500       N(2)  =     4000

 ion  position               nearest neighbor table
   1  0.333  0.667  0.250-   4 2.41   5 2.41   4 2.41   5 2.41   5 2.41   4 2.41
   2  0.667  0.333  0.750-   3 2.41   6 2.41   3 2.41   6 2.41   6 2.41   3 2.41
   3  0.333  0.667  0.867-   2 2.41   2 2.41   2 2.41
   4  0.667  0.333  0.133-   1 2.41   1 2.41   1 2.41
   5  0.667  0.333  0.367-   1 2.41   1 2.41   1 2.41
   6  0.333  0.667  0.633-   2 2.41   2 2.41   2 2.41

  LATTYP: Found a hexagonal cell.
 ALAT       =     3.1922739082
 C/A-ratio  =     4.1605291851

  Lattice vectors:

 A1 = (   3.1922737479,   0.0000000000,   0.0000000000)
 A2 = (  -1.5961368740,   2.7645903466,   0.0000000000)
 A3 = (   0.0000000000,   0.0000000000,  13.2815487621)

Analysis of symmetry for initial positions (statically):
 Subroutine PRICEL returns:
 Original cell was already a primitive cell.

 Routine SETGRP: Setting up the symmetry group for a
 hexagonal supercell.

 Subroutine GETGRP returns: Found 24 space group operations
 (whereof 12 operations were pure point group operations)
 out of a pool of 24 trial point group operations.

The static configuration has the point symmetry D_3d.
 The point group associated with its full space group is D_6h.

Analysis of symmetry for dynamics (positions and initial velocities):
 Subroutine PRICEL returns:
 Original cell was already a primitive cell.

 Routine SETGRP: Setting up the symmetry group for a
 hexagonal supercell.

 Subroutine GETGRP returns: Found 24 space group operations
 (whereof 12 operations were pure point group operations)
 out of a pool of 24 trial point group operations.

The dynamic configuration has the point symmetry D_3d.
 The point group associated with its full space group is D_6h.

 Subroutine INISYM returns: Found 24 space group operations
 (whereof 12 operations are pure point group operations),
 and found     1 'primitive' translations

 KPOINTS: HEX (hexagonal) G-M-K-G-A-L-H-A L-M K-H
  interpolating k-points between supplied coordinates
  k-points in reciprocal lattice
Space group operators:
 irot       det(A)        alpha          n_x          n_y          n_z        tau_x        tau_y        tau_z
    1     1.000000     0.000000     1.000000     0.000000     0.000000     0.000000     0.000000     0.000000
    2    -1.000000     0.000000     1.000000     0.000000     0.000000     0.000000     0.000000     0.000000
    3     1.000000   120.000000     0.000000     0.000000    -1.000000     0.000000     0.000000     0.000000
    4    -1.000000   120.000000     0.000000     0.000000    -1.000000     0.000000     0.000000     0.000000
    5     1.000000   120.000000     0.000000     0.000000     1.000000     0.000000     0.000000     0.000000
    6    -1.000000   120.000000     0.000000     0.000000     1.000000     0.000000     0.000000     0.000000
    7     1.000000   180.000000     1.000000    -0.000000     0.000000     0.000000     0.000000     0.000000
    8    -1.000000   180.000000     1.000000    -0.000000     0.000000     0.000000     0.000000     0.000000
    9     1.000000   179.999999     0.500000    -0.866025     0.000000     0.000000     0.000000     0.000000
   10    -1.000000   179.999999     0.500000    -0.866025     0.000000     0.000000     0.000000     0.000000
   11     1.000000   180.000000    -0.500000    -0.866025     0.000000     0.000000     0.000000     0.000000
   12    -1.000000   180.000000    -0.500000    -0.866025     0.000000     0.000000     0.000000     0.000000
   13     1.000000    60.000000     0.000000     0.000000    -1.000000     0.000001     0.000000     0.500000
   14    -1.000000    60.000000     0.000000     0.000000    -1.000000     0.000001     0.000000     0.500000
   15     1.000000   180.000000     0.000000     0.000000     1.000000     0.000000     0.000000     0.500000
   16    -1.000000   180.000000     0.000000     0.000000     1.000000     0.000000     0.000000     0.500000
   17     1.000000    60.000000     0.000000     0.000000     1.000000     0.000000     0.000000     0.500000
   18    -1.000000    60.000000     0.000000     0.000000     1.000000     0.000000     0.000000     0.500000
   19     1.000000   180.000000     0.866025    -0.500000     0.000000     0.000000     0.000000     0.500000
   20    -1.000000   180.000000     0.866025    -0.500000     0.000000     0.000000     0.000000     0.500000
   21     1.000000   180.000000     0.000000    -1.000000     0.000000     0.000001     0.000000     0.500000
   22    -1.000000   180.000000     0.000000    -1.000000     0.000000     0.000001     0.000000     0.500000
   23     1.000000   180.000000     0.866025     0.500000     0.000000     0.000000     0.000000     0.500000
   24    -1.000000   180.000000     0.866025     0.500000     0.000000     0.000000     0.000000     0.500000

 SYSTEM =  unknown system
 POSCAR =  unknown system

 Startparameter for this run:
   NWRITE =      2    write-flag & timer
   PREC   = accura    normal or accurate (medium, high low for compatibility)
   ISTART =      0    job   : 0-new  1-cont  2-samecut
   ICHARG =     11    charge: 1-file 2-atom 10-const
   ISPIN  =      1    spin polarized calculation?
   LNONCOLLINEAR =      F non collinear calculations
   LSORBIT =      F    spin-orbit coupling
   INIWAV =      1    electr: 0-lowe 1-rand  2-diag
   LASPH  =      F    aspherical Exc in radial PAW
   METAGGA=      F    non-selfconsistent MetaGGA calc.

 Electronic Relaxation 1
   ENCUT  =  450.0 eV  33.07 Ry    5.75 a.u.   5.52  5.52 22.97*2*pi/ulx,y,z
   ENINI  =  450.0     initial cutoff
   ENAUG  =  345.3 eV  augmentation charge cutoff
   NELM   =     60;   NELMIN=  4; NELMDL=  0     # of ELM steps
   EDIFF  = 0.1E-05   stopping-criterion for ELM
   LREAL  =      F    real-space projection
   NLSPLINE    = F    spline interpolate recip. space projectors
   LCOMPAT=      F    compatible to vasp.4.4
   GGA_COMPAT  = T    GGA compatible to vasp.4.4-vasp.4.6
   LMAXPAW     = -100 max onsite density
   LMAXMIX     =    2 max onsite mixed and CHGCAR
   VOSKOWN=      0    Vosko Wilk Nusair interpolation
   ROPT   =    0.00000   0.00000
 Ionic relaxation
   EDIFFG = 0.1E-04   stopping-criterion for IOM
   NSW    =      0    number of steps for IOM
   NBLOCK =      1;   KBLOCK =      1    inner block; outer block
   IBRION =     -1    ionic relax: 0-MD 1-quasi-New 2-CG
   NFREE  =      0    steps in history (QN), initial steepest desc. (CG)
   ISIF   =      2    stress and relaxation
   IWAVPR =     10    prediction:  0-non 1-charg 2-wave 3-comb
   ISYM   =      2    0-nonsym 1-usesym 2-fastsym
   LCORR  =      T    Harris-Foulkes like correction to forces

   POTIM  = 0.5000    time-step for ionic-motion
   TEIN   =    0.0    initial temperature
   TEBEG  =    0.0;   TEEND  =   0.0 temperature during run
   SMASS  =  -3.00    Nose mass-parameter (am)
   estimated Nose-frequenzy (Omega)   =  0.10E-29 period in steps =****** mass=  -0.233E-27a.u.
   SCALEE = 1.0000    scale energy and forces
   NPACO  =    256;   APACO  = 16.0  distance and # of slots for P.C.
   PSTRESS=    0.0 pullay stress

  Mass of Ions in am
   POMASS =  95.94 32.07
  Ionic Valenz
   ZVAL   =   6.00  6.00
  Atomic Wigner-Seitz radii
  virtual crystal weights
   VCA    =   1.00  1.00
   NELECT =      36.0000    total number of electrons
   NUPDOWN=      -1.0000    fix difference up-down

 DOS related values:
   EMIN   = -12.00;   EMAX   = 12.00  energy-range for DOS
   EFERMI =   0.00
   ISMEAR =     0;   SIGMA  =   0.20  broadening in eV -4-tet -1-fermi 0-gaus

 Electronic relaxation 2 (details)
   IALGO  =     68    algorithm
   LDIAG  =      T    sub-space diagonalisation (order eigenvalues)
   LSUBROT=      F    optimize rotation matrix (better conditioning)
   TURBO    =      0    0=normal 1=particle mesh
   IRESTART =      0    0=no restart 2=restart with 2 vectors
   NREBOOT  =      0    no. of reboots
   NMIN     =      0    reboot dimension
   EREF     =   0.00    reference energy to select bands
   IMIX   =      4    mixing-type and parameters
     AMIX     =   0.40;   BMIX     =  1.00
     AMIX_MAG =   1.60;   BMIX_MAG =  1.00
     AMIN     =   0.10
     WC   =   100.;   INIMIX=   1;  MIXPRE=   1;  MAXMIX= -45

 Intra band minimization:
   WEIMIN = 0.0000     energy-eigenvalue tresh-hold
   EBREAK =  0.11E-07  absolut break condition
   DEPER  =   0.30     relativ break condition

   TIME   =   0.40     timestep for ELM

  volume/ion in A,a.u.               =      19.54       131.83
  Fermi-wavevector in a.u.,A,eV,Ry     =   1.104543  2.087283 16.599302  1.220014
  Thomas-Fermi vector in A             =   2.241017

 Write flags
   LWAVE        =      F    write WAVECAR
   LDOWNSAMPLE  =      F    k-point downsampling of WAVECAR
   LCHARG       =      T    write CHGCAR
   LVTOT        =      F    write LOCPOT, total local potential
   LVHAR        =      F    write LOCPOT, Hartree potential only
   LELF         =      T    write electronic localiz. function (ELF)
   LORBIT       =     11    0 simple, 1 ext, 2 COOP (PROOUT), +10 PAW based schemes

 Dipole corrections
   LMONO  =      F    monopole corrections only (constant potential shift)
   LDIPOL =      F    correct potential (dipole corrections)
   IDIPOL =      0    1-x, 2-y, 3-z, 4-all directions
   EPSILON=  1.0000000 bulk dielectric constant

 Exchange correlation treatment:
   GGA     =    --    GGA type
   VOSKOWN=      0    Vosko Wilk Nusair interpolation
   LHFCALC =     F    Hartree Fock is set to
   LHFONE  =     F    Hartree Fock one center treatment
   AEXX    =    0.0000 exact exchange contribution

 Linear response parameters
   LEPSILON=     F    determine dielectric tensor
   LRPA    =     F    only Hartree local field effects (RPA)
[...]

 position of ions in fractional coordinates (direct lattice)
   0.33333300  0.66666700  0.25000000
   0.66666700  0.33333300  0.75000000
   0.33333300  0.66666700  0.86743573
   0.66666700  0.33333300  0.13256427
   0.66666600  0.33333300  0.36743573
   0.33333400  0.66666700  0.63256427

 position of ions in cartesian coordinates  (Angst):
  -0.00000160  1.84306115  3.32038719
   1.59613847  0.92152919  9.96116157
  -0.00000160  1.84306115 11.52088992
   1.59613847  0.92152919  1.76065884
   1.59613528  0.92152919  4.88011554
   0.00000160  1.84306115  8.40143322

 k-point  1 :   0.0000 0.0000 0.0000  plane waves:    2589
 k-point  2 :   0.0263 0.0000 0.0000  plane waves:    2581
 k-point  3 :   0.0526 0.0000 0.0000  plane waves:    2575
 k-point  4 :   0.0789 0.0000 0.0000  plane waves:    2581
 k-point  5 :   0.1053 0.0000 0.0000  plane waves:    2581
 k-point  6 :   0.1316 0.0000 0.0000  plane waves:    2581
 k-point  7 :   0.1579 0.0000 0.0000  plane waves:    2573
 k-point  8 :   0.1842 0.0000 0.0000  plane waves:    2573
 k-point  9 :   0.2105 0.0000 0.0000  plane waves:    2559
 k-point 10 :   0.2368 0.0000 0.0000  plane waves:    2550
 k-point 11 :   0.2632 0.0000 0.0000  plane waves:    2544
 k-point 12 :   0.2895 0.0000 0.0000  plane waves:    2540
 k-point 13 :   0.3158 0.0000 0.0000  plane waves:    2544
 k-point 14 :   0.3421 0.0000 0.0000  plane waves:    2546
 k-point 15 :   0.3684 0.0000 0.0000  plane waves:    2536
 k-point 16 :   0.3947 0.0000 0.0000  plane waves:    2526
 k-point 17 :   0.4211 0.0000 0.0000  plane waves:    2520
 k-point 18 :   0.4474 0.0000 0.0000  plane waves:    2516
 k-point 19 :   0.4737 0.0000 0.0000  plane waves:    2512
 k-point 20 :   0.5000 0.0000 0.0000  plane waves:    2508
 k-point 21 :   0.5000 0.0000 0.0000  plane waves:    2508
 k-point 22 :   0.4912 0.0175 0.0000  plane waves:    2506
 k-point 23 :   0.4825 0.0351 0.0000  plane waves:    2502
 k-point 24 :   0.4737 0.0526 0.0000  plane waves:    2502
 k-point 25 :   0.4649 0.0702 0.0000  plane waves:    2510
 k-point 26 :   0.4561 0.0877 0.0000  plane waves:    2520
 k-point 27 :   0.4474 0.1053 0.0000  plane waves:    2510
 k-point 28 :   0.4386 0.1228 0.0000  plane waves:    2518
 k-point 29 :   0.4298 0.1403 0.0000  plane waves:    2524
 k-point 30 :   0.4210 0.1579 0.0000  plane waves:    2530
 k-point 31 :   0.4123 0.1754 0.0000  plane waves:    2530
 k-point 32 :   0.4035 0.1930 0.0000  plane waves:    2520
 k-point 33 :   0.3947 0.2105 0.0000  plane waves:    2524
 k-point 34 :   0.3859 0.2280 0.0000  plane waves:    2524
 k-point 35 :   0.3772 0.2456 0.0000  plane waves:    2526
 k-point 36 :   0.3684 0.2631 0.0000  plane waves:    2524
 k-point 37 :   0.3596 0.2807 0.0000  plane waves:    2536
 k-point 38 :   0.3508 0.2982 0.0000  plane waves:    2540
 k-point 39 :   0.3421 0.3158 0.0000  plane waves:    2540
 k-point 40 :   0.3333 0.3333 0.0000  plane waves:    2550
 k-point 41 :   0.3333 0.3333 0.0000  plane waves:    2550
 k-point 42 :   0.3158 0.3158 0.0000  plane waves:    2546
 k-point 43 :   0.2982 0.2982 0.0000  plane waves:    2526
 k-point 44 :   0.2807 0.2807 0.0000  plane waves:    2526
 k-point 45 :   0.2631 0.2631 0.0000  plane waves:    2528
 k-point 46 :   0.2456 0.2456 0.0000  plane waves:    2530
 k-point 47 :   0.2280 0.2280 0.0000  plane waves:    2535
 k-point 48 :   0.2105 0.2105 0.0000  plane waves:    2531
 k-point 49 :   0.1930 0.1930 0.0000  plane waves:    2541
 k-point 50 :   0.1754 0.1754 0.0000  plane waves:    2555
 k-point 51 :   0.1579 0.1579 0.0000  plane waves:    2539
 k-point 52 :   0.1403 0.1403 0.0000  plane waves:    2537
 k-point 53 :   0.1228 0.1228 0.0000  plane waves:    2545
 k-point 54 :   0.1053 0.1053 0.0000  plane waves:    2569
 k-point 55 :   0.0877 0.0877 0.0000  plane waves:    2571
 k-point 56 :   0.0702 0.0702 0.0000  plane waves:    2571
 k-point 57 :   0.0526 0.0526 0.0000  plane waves:    2575
 k-point 58 :   0.0351 0.0351 0.0000  plane waves:    2583
 k-point 59 :   0.0175 0.0175 0.0000  plane waves:    2585
 k-point 60 :   0.0000 0.0000 0.0000  plane waves:    2589
[...]
 k-point 85 :   0.1053 0.0000 0.5000  plane waves:    2572
 k-point 86 :   0.1316 0.0000 0.5000  plane waves:    2578
 k-point 87 :   0.1579 0.0000 0.5000  plane waves:    2576
 k-point 88 :   0.1842 0.0000 0.5000  plane waves:    2568
 k-point 89 :   0.2105 0.0000 0.5000  plane waves:    2552
 k-point 90 :   0.2368 0.0000 0.5000  plane waves:    2560
 k-point 91 :   0.2632 0.0000 0.5000  plane waves:    2552
 k-point 92 :   0.2895 0.0000 0.5000  plane waves:    2542
 k-point 93 :   0.3158 0.0000 0.5000  plane waves:    2536
 k-point 94 :   0.3421 0.0000 0.5000  plane waves:    2538
 k-point 95 :   0.3684 0.0000 0.5000  plane waves:    2534
 k-point 96 :   0.3947 0.0000 0.5000  plane waves:    2534
 k-point 97 :   0.4211 0.0000 0.5000  plane waves:    2524
 k-point 98 :   0.4474 0.0000 0.5000  plane waves:    2526
 k-point 99 :   0.4737 0.0000 0.5000  plane waves:    2514
 k-point ** :   0.5000 0.0000 0.5000  plane waves:    2516
 k-point ** :   0.5000 0.0000 0.5000  plane waves:    2516
 k-point ** :   0.4912 0.0175 0.5000  plane waves:    2508
 k-point ** :   0.4825 0.0351 0.5000  plane waves:    2510
 k-point ** :   0.4737 0.0526 0.5000  plane waves:    2510
 k-point ** :   0.4649 0.0702 0.5000  plane waves:    2514
 k-point ** :   0.4561 0.0877 0.5000  plane waves:    2512
 k-point ** :   0.4474 0.1053 0.5000  plane waves:    2522
 k-point ** :   0.4386 0.1228 0.5000  plane waves:    2516
 k-point ** :   0.4298 0.1403 0.5000  plane waves:    2518
 k-point ** :   0.4210 0.1579 0.5000  plane waves:    2522
 k-point ** :   0.4123 0.1754 0.5000  plane waves:    2530
 k-point ** :   0.4035 0.1930 0.5000  plane waves:    2538
 k-point ** :   0.3947 0.2105 0.5000  plane waves:    2546
 k-point ** :   0.3859 0.2280 0.5000  plane waves:    2550
 k-point ** :   0.3772 0.2456 0.5000  plane waves:    2546
 k-point ** :   0.3684 0.2631 0.5000  plane waves:    2550
 k-point ** :   0.3596 0.2807 0.5000  plane waves:    2552
 k-point ** :   0.3508 0.2982 0.5000  plane waves:    2542
 k-point ** :   0.3421 0.3158 0.5000  plane waves:    2546
 k-point ** :   0.3333 0.3333 0.5000  plane waves:    2562
 k-point ** :   0.3333 0.3333 0.5000  plane waves:    2562
 k-point ** :   0.3158 0.3158 0.5000  plane waves:    2546
 k-point ** :   0.2982 0.2982 0.5000  plane waves:    2542
 k-point ** :   0.2807 0.2807 0.5000  plane waves:    2536
 k-point ** :   0.2631 0.2631 0.5000  plane waves:    2534
 k-point ** :   0.2456 0.2456 0.5000  plane waves:    2538
 k-point ** :   0.2280 0.2280 0.5000  plane waves:    2544
 k-point ** :   0.2105 0.2105 0.5000  plane waves:    2550
 k-point ** :   0.1930 0.1930 0.5000  plane waves:    2542
 k-point ** :   0.1754 0.1754 0.5000  plane waves:    2542
 k-point ** :   0.1579 0.1579 0.5000  plane waves:    2546
 k-point ** :   0.1403 0.1403 0.5000  plane waves:    2552
 k-point ** :   0.1228 0.1228 0.5000  plane waves:    2552
 k-point ** :   0.1053 0.1053 0.5000  plane waves:    2560
 k-point ** :   0.0877 0.0877 0.5000  plane waves:    2568
 k-point ** :   0.0702 0.0702 0.5000  plane waves:    2582
 k-point ** :   0.0526 0.0526 0.5000  plane waves:    2578
 k-point ** :   0.0351 0.0351 0.5000  plane waves:    2580
 k-point ** :   0.0175 0.0175 0.5000  plane waves:    2574
 k-point ** :   0.0000 0.0000 0.5000  plane waves:    2578

 maximum and minimum number of plane-waves per node :      1296     1247

 maximum number of plane-waves:      2590
 maximum index in each direction:
   IXMAX=    5   IYMAX=    5   IZMAX=   22
   IXMIN=   -6   IYMIN=   -5   IZMIN=  -23

 parallel 3D FFT for wavefunctions:
    minimum data exchange during FFTs selected (reduces bandwidth)
 parallel 3D FFT for charge:
    minimum data exchange during FFTs selected (reduces bandwidth)

 initial charge density was supplied:
 number of electron      36.0000004 magnetization
 keeping initial charge density in first step

 Maximum index for augmentation-charges         7393 (set IRDMAX)

 First call to EWALD:  gamma=   0.362
 Maximum number of real-space cells 4x 4x 1
 Maximum number of reciprocal cells 2x 2x 7

--------------------------------------- Iteration      1(   1)  ---------------------------------------

 eigenvalue-minimisations  :  6160
 total energy-change (2. order) : 0.1904177E+03  (-0.1493629E+04)
 number of electron      36.0000004 magnetization
 augmentation part       36.0000004 magnetization

 Free energy of the ion-electron system (eV)
  alpha Z        PSCENC =       101.17761570
  Ewald energy   TEWEN  =     -1410.01026994
  -Hartree energ DENC   =      -328.89389823
  -exchange      EXHF   =         0.00000000
  -V(xc)+E(xc)   XCENC  =       -70.28905689
  PAW double counting   =       945.70495410     -794.10023629
  entropy T*S    EENTRO =        -0.03551251
  eigenvalues    EBANDS =       204.55385424
  atomic energy  EATOM  =      1542.31022798
  Solvation  Ediel_sol  =         0.00000000
  free energy    TOTEN  =       190.41767816 eV

  energy without entropy =      190.45319067  energy(sigma->0) =      190.43543442

[...]

 eigenvalue-minimisations  :  8070
 total energy-change (2. order) :-0.2147101E+03  (-0.2075473E+03)
 number of electron      36.0000004 magnetization
 augmentation part       36.0000004 magnetization

[...]

--------------------------------------- Iteration      1(   9)  ---------------------------------------

 eigenvalue-minimisations  :  4495
 total energy-change (2. order) :-0.2645447E-06  (-0.3719902E-06)
 number of electron      36.0000004 magnetization
 augmentation part       36.0000004 magnetization

 Free energy of the ion-electron system (eV)
  alpha Z        PSCENC =       101.17761570
  Ewald energy   TEWEN  =     -1410.01026994
  -Hartree energ DENC   =      -328.89389823
  -exchange      EXHF   =         0.00000000
  -V(xc)+E(xc)   XCENC  =       -70.28905689
  PAW double counting   =       945.70495410     -794.10023629
  entropy T*S    EENTRO =        -0.00000314
  eigenvalues    EBANDS =       -27.33916481
  atomic energy  EATOM  =      1542.31022798
  Solvation  Ediel_sol  =         0.00000000
  free energy    TOTEN  =       -41.43983152 eV

  energy without entropy =      -41.43982838  energy(sigma->0) =      -41.43982995

 average (electrostatic) potential at core
  the test charge radii are     1.2296  0.9698
  (the norm of the test charge is              1.0000)
       1 -39.2525       2 -39.2525       3 -87.0995       4 -87.0995       5 -87.0995
       6 -87.0995

 E-fermi :   5.2091     XC(G=0): -10.1212     alpha+bet :-10.7826

 k-point     1 :       0.0000    0.0000    0.0000
  band No.  band energies     occupation
      1      -9.9103      2.00000
      2      -9.8110      2.00000
      3      -8.7227      2.00000
      4      -8.5546      2.00000
      5      -1.6500      2.00000
      6      -1.1268      2.00000
      7       1.5615      2.00000
      8       1.5615      2.00000
      9       1.5655      2.00000
     10       1.5655      2.00000
     11       1.8332      2.00000
     12       2.6729      2.00000
     13       2.6730      2.00000
     14       2.6872      2.00000
     15       2.6872      2.00000
     16       3.2209      2.00000
     17       3.8627      2.00000
     18       4.6232      1.99997
     19       6.9495      0.00000
     20       6.9623      0.00000
     21       7.0301      0.00000
     22       7.1605      0.00000

[...]

 k-point   140 :       0.0000    0.0000    0.5000
  band No.  band energies     occupation
      1      -9.8637      2.00000
      2      -9.8637      2.00000
      3      -8.6361      2.00000
      4      -8.6361      2.00000
      5      -1.4125      2.00000
      6      -1.4125      2.00000
      7       1.5635      2.00000
      8       1.5635      2.00000
      9       1.5635      2.00000
     10       1.5635      2.00000
     11       2.4127      2.00000
     12       2.4127      2.00000
     13       2.6801      2.00000
     14       2.6801      2.00000
     15       2.6801      2.00000
     16       2.6801      2.00000
     17       4.3816      2.00000
     18       4.3816      2.00000
     19       6.9458      0.00000
     20       6.9553      0.00000
     21       6.9888      0.00000
     22       7.0868      0.00000

 soft charge-density along one line, spin component           1
         0         1         2         3         4         5         6         7         8         9
 total charge-density along one line

------------------------ aborting loop because EDIFF is reached ----------------------------------------

 total charge

# of ion       s       p       d       tot
    1        0.430   0.533   4.756   5.718
    2        0.430   0.533   4.756   5.718
    3        1.338   2.256   0.000   3.595
    4        1.338   2.256   0.000   3.595
    5        1.338   2.256   0.000   3.595
    6        1.338   2.256   0.000   3.595
tot          6.214  10.090   9.511  25.815

  FORCE on cell =-STRESS in cart. coord.  units (eV):
  Direction    XX          YY          ZZ          XY          YZ          ZX
  Alpha Z   101.17762   101.17762   101.17762
  Ewald    -274.78654  -274.78567  -860.43961     0.00038     0.00000     0.00024
  Hartree   267.29988   267.29990  -190.01580     0.00004     0.00000    -0.00001
  E(xc)    -140.45539  -140.45540  -141.72790    -0.00001     0.00000    -0.00000
  Local    -615.94387  -615.94449   403.85957    -0.00033     0.00000    -0.00010
  n-local   236.36160   235.71756   247.95541    -0.08658    -0.00001    -0.00003
  augment   -47.01739   -47.01737   -50.08003     0.00003     0.00000    -0.00001
  Kinetic   471.20882   478.90445   493.18408   -10.60218     0.00014     0.00015
  Fock        0.00000     0.00000     0.00000     0.00000     0.00000     0.00000
  Total       1.37067     1.37067     3.91334     0.00000     0.00000     0.00000
  in kB      18.73542    18.73542    53.49076     0.00000     0.00000     0.00000

 VOLUME and BASIS-vectors are now :
  energy-cutoff  :      450.00
  volume of cell :      117.21
      direct lattice vectors                 reciprocal lattice vectors
     3.192273748  0.000000000  0.000000000     0.313256343  0.180858622  0.000000000
    -1.596136874  2.764590347  0.000000000    -0.000000000  0.361717244  0.000000000
     0.000000000  0.000000000 13.281548762     0.000000000  0.000000000  0.075292424

  length of vectors
     3.192273748  3.192273908 13.281548762     0.361717262  0.361717244  0.075292424

 FORCES acting on ions
    electron-ion (+dipol)            ewald-force                    non-local-force                 convergence-correction
   0.593E-04 -.466E-04 -.558E-05   0.938E-04 -.100E-03 0.292E-09   0.104E-16 -.104E-16 -.397E-22   -.226E-05 0.127E-05 -.154E-05
   0.523E-04 -.179E-04 -.558E-05   -.938E-04 0.100E-03 -.292E-09   -.104E-16 0.104E-16 0.106E-21   0.673E-05 -.384E-05 -.154E-05
   0.520E-03 -.304E-03 -.199E+03   0.884E-04 -.508E-04 0.192E+03   0.173E-17 0.104E-16 -.210E+01   0.227E-05 -.115E-05 0.826E+01
   -.115E-02 0.665E-03 0.199E+03   -.884E-04 0.508E-04 -.192E+03   0.607E-17 0.694E-17 0.210E+01   -.108E-04 0.606E-05 -.826E+01
   0.530E-03 0.670E-03 -.199E+03   -.552E-05 0.508E-04 0.192E+03   0.694E-17 -.104E-16 -.210E+01   0.393E-05 0.410E-05 0.826E+01
   -.117E-02 -.298E-03 0.199E+03   0.552E-05 -.508E-04 -.192E+03   -.867E-17 -.347E-17 0.210E+01   -.565E-05 -.311E-05 -.826E+01
   -.116E-02 0.669E-03 -.477E-05   0.126E-13 0.229E-13 0.284E-13   0.607E-17 0.347E-17 0.000E+00   -.577E-05 0.333E-05 -.255E-05

 POSITION                                       TOTAL-FORCE (eV/Angst)
     -0.00000      1.84306      3.32039        -0.000000      0.000000     -0.000000
      1.59614      0.92153      9.96116         0.000000     -0.000000     -0.000000
     -0.00000      1.84306     11.52089        -0.000000      0.000000     -0.556091
      1.59614      0.92153      1.76066         0.000000     -0.000000      0.556091
      1.59614      0.92153      4.88012         0.000000     -0.000000     -0.556091
      0.00000      1.84306      8.40143        -0.000000     -0.000000      0.556091
    total drift:                               -0.001164      0.000672     -0.000007

  FREE ENERGIE OF THE ION-ELECTRON SYSTEM (eV)
  free  energy   TOTEN  =       -41.43983152 eV

  energy  without entropy=      -41.43982838  energy(sigma->0) =      -41.43982995

 total charge

# of ion       s       p       d       tot
    1        0.430   0.533   4.756   5.718
    2        0.430   0.533   4.756   5.718
    3        1.338   2.256   0.000   3.595
    4        1.338   2.256   0.000   3.595
    5        1.338   2.256   0.000   3.595
    6        1.338   2.256   0.000   3.595
tot          6.214  10.090   9.511  25.815