 vasp.5.4.4.18Apr17-6-g9f103f2a35 (build Jun 30 2017 11:15:00) complex

 executed on    STALLO_VASP_5.4.4 date 2019.11.08  16:52:15

 INCAR:
 POTCAR:   PAW_PBE Mo 08Apr2002
 POTCAR:    PAW_PBE S 17Jan2003
 POTCAR:   PAW_PBE Mo 08Apr2002
   VRHFIN =Mo: 4p5s4d

   TITEL  = PAW_PBE Mo 08Apr2002
   POMASS =   95.940; ZVAL   =    6.000    mass and valenz
   ENMAX  =  224.584; ENMIN  =  168.438 eV
   QCUT   =   -4.063; QGAM   =    8.126    optimization parameters

   Description
     l     E      TYP  RCUT    TYP  RCUT
     2   .000     23  2.500
     2   .000     23  2.500
     0   .000     23  2.600
     0  1.000     23  2.600
     1   .400     23  2.750
     1  2.000     23  2.750
     3   .000      7   .000

 POTCAR:    PAW_PBE S 17Jan2003
   VRHFIN =S : s2p4

   TITEL  = PAW_PBE S 17Jan2003
   POMASS =   32.066; ZVAL   =    6.000    mass and valenz
   ENMAX  =  280.000; ENMIN  =  194.016 eV
   QCUT   =   -4.360; QGAM   =    8.721    optimization parameters

   Description
     l     E      TYP  RCUT    TYP  RCUT
     0   .000     23  1.900
     0   .000     23  1.900
     1   .000     23  1.900
     1   .000     23  1.900
     2   .000     23  1.900

 PAW_PBE Mo 08Apr2002                   :
  PAW_PBE S 17Jan2003                   :

 POSCAR: MoS2_mp-2815_computed
  positions in direct lattice
  velocities in cartesian coordinates
 exchange correlation table for  LEXCH =        8
   RHO(1)=    0.500       N(1)  =     2000
   RHO(2)=  100.500       N(2)  =     4000

 ion  position               nearest neighbor table
   1  0.333  0.667  0.120-   3 2.41   2 2.41   2 2.41   3 2.41   3 2.41   2 2.41
   2  0.667  0.333  0.070-   1 2.41   1 2.41   1 2.41
   3  0.667  0.333  0.171-   1 2.41   1 2.41   1 2.41

  LATTYP: Found a hexagonal cell.
 ALAT       =     3.1898568304
 C/A-ratio  =     9.6537181778

  Lattice vectors:

 A1 = (   3.1898568304,   0.0000000000,   0.0000000000)
 A2 = (  -1.5949284152,   2.7624970496,   0.0000000000)
 A3 = (   0.0000000000,   0.0000000000,  30.7939788683)

Analysis of symmetry for initial positions (statically):
 Subroutine PRICEL returns:
 Original cell was already a primitive cell.

 Routine SETGRP: Setting up the symmetry group for a
 hexagonal supercell.

 Subroutine GETGRP returns: Found 12 space group operations
 (whereof  6 operations were pure point group operations)
 out of a pool of 24 trial point group operations.

The static configuration has the point symmetry C_3v.
 The point group associated with its full space group is D_3h.

Analysis of symmetry for dynamics (positions and initial velocities):
 Subroutine PRICEL returns:
 Original cell was already a primitive cell.

 Routine SETGRP: Setting up the symmetry group for a
 hexagonal supercell.

 Subroutine GETGRP returns: Found 12 space group operations
 (whereof  6 operations were pure point group operations)
 out of a pool of 24 trial point group operations.

The dynamic configuration has the point symmetry C_3v.
 The point group associated with its full space group is D_3h.

 Subroutine INISYM returns: Found 12 space group operations
 (whereof  6 operations are pure point group operations),
 and found     1 'primitive' translations

 KPOINTS: HEX (hexagonal) G-M-K-G-A-L-H-A L-M K-H
  interpolating k-points between supplied coordinates
  k-points in reciprocal lattice
Space group operators:
 irot       det(A)        alpha          n_x          n_y          n_z        tau_x        tau_y        tau_z
    1     1.000000     0.000000     1.000000     0.000000     0.000000     0.000000     0.000000     0.000000
    2     1.000000   120.000000     0.000000     0.000000    -1.000000     0.000000     0.000000     0.000000
    3     1.000000   120.000000     0.000000     0.000000     1.000000     0.000000     0.000000     0.000000
    4    -1.000000   180.000000     1.000000    -0.000000     0.000000     0.000000     0.000000     0.000000
    5    -1.000000   180.000000     0.500000    -0.866025     0.000000     0.000000     0.000000     0.000000
    6    -1.000000   180.000000    -0.500000    -0.866025     0.000000     0.000000     0.000000     0.000000
    7    -1.000000    60.000000     0.000000     0.000000    -1.000000     0.000000     0.000000     0.240924
    8    -1.000000   180.000000     0.000000     0.000000     1.000000     0.000000     0.000000     0.240924
    9    -1.000000    60.000000     0.000000     0.000000     1.000000     0.000000     0.000001     0.240924
   10     1.000000   180.000000     0.866025    -0.500000     0.000000     0.000000     0.000000     0.240924
   11     1.000000   180.000000     0.000000     1.000000     0.000000     0.000000     0.000000     0.240924
   12     1.000000   180.000000     0.866025     0.500000     0.000000     0.000000     0.000001     0.240924

 SYSTEM =  unknown system
 POSCAR =  MoS2_mp-2815_computed

 Startparameter for this run:
   NWRITE =      2    write-flag & timer
   PREC   = accura    normal or accurate (medium, high low for compatibility)
   ISTART =      0    job   : 0-new  1-cont  2-samecut
   ICHARG =     11    charge: 1-file 2-atom 10-const
   ISPIN  =      1    spin polarized calculation?
   LNONCOLLINEAR =      F non collinear calculations
   LSORBIT =      F    spin-orbit coupling
   INIWAV =      1    electr: 0-lowe 1-rand  2-diag
   LASPH  =      F    aspherical Exc in radial PAW
   METAGGA=      F    non-selfconsistent MetaGGA calc.

 Electronic Relaxation 1
   ENCUT  =  450.0 eV  33.07 Ry    5.75 a.u.   5.52  5.52 53.26*2*pi/ulx,y,z
   ENINI  =  450.0     initial cutoff
   ENAUG  =  345.3 eV  augmentation charge cutoff
   NELM   =     60;   NELMIN=  4; NELMDL=  0     # of ELM steps
   EDIFF  = 0.1E-05   stopping-criterion for ELM
   LREAL  =      F    real-space projection
   NLSPLINE    = F    spline interpolate recip. space projectors
   LCOMPAT=      F    compatible to vasp.4.4
   GGA_COMPAT  = T    GGA compatible to vasp.4.4-vasp.4.6
   LMAXPAW     = -100 max onsite density
   LMAXMIX     =    2 max onsite mixed and CHGCAR
   VOSKOWN=      0    Vosko Wilk Nusair interpolation
   ROPT   =    0.00000   0.00000
 Ionic relaxation
   EDIFFG = 0.1E-04   stopping-criterion for IOM
   NSW    =      0    number of steps for IOM
   NBLOCK =      1;   KBLOCK =      1    inner block; outer block
   IBRION =     -1    ionic relax: 0-MD 1-quasi-New 2-CG
   NFREE  =      0    steps in history (QN), initial steepest desc. (CG)
   ISIF   =      2    stress and relaxation
   IWAVPR =     10    prediction:  0-non 1-charg 2-wave 3-comb
   ISYM   =      2    0-nonsym 1-usesym 2-fastsym
   LCORR  =      T    Harris-Foulkes like correction to forces

   POTIM  = 0.5000    time-step for ionic-motion
   TEIN   =    0.0    initial temperature
   TEBEG  =    0.0;   TEEND  =   0.0 temperature during run
   SMASS  =  -3.00    Nose mass-parameter (am)
   estimated Nose-frequenzy (Omega)   =  0.10E-29 period in steps =****** mass=  -0.233E-27a.u.
   SCALEE = 1.0000    scale energy and forces
   NPACO  =    256;   APACO  = 16.0  distance and # of slots for P.C.
   PSTRESS=    0.0 pullay stress

  Mass of Ions in am
   POMASS =  95.94 32.07
  Ionic Valenz
   ZVAL   =   6.00  6.00
  Atomic Wigner-Seitz radii
  virtual crystal weights
   VCA    =   1.00  1.00
   NELECT =      18.0000    total number of electrons
   NUPDOWN=      -1.0000    fix difference up-down

 DOS related values:
   EMIN   = -12.00;   EMAX   = 12.00  energy-range for DOS
   EFERMI =   0.00
   ISMEAR =     0;   SIGMA  =   0.20  broadening in eV -4-tet -1-fermi 0-gaus

 Electronic relaxation 2 (details)
   IALGO  =     68    algorithm
   LDIAG  =      T    sub-space diagonalisation (order eigenvalues)
   LSUBROT=      F    optimize rotation matrix (better conditioning)
   TURBO    =      0    0=normal 1=particle mesh
   IRESTART =      0    0=no restart 2=restart with 2 vectors
   NREBOOT  =      0    no. of reboots
   NMIN     =      0    reboot dimension
   EREF     =   0.00    reference energy to select bands
   IMIX   =      4    mixing-type and parameters
     AMIX     =   0.40;   BMIX     =  1.00
     AMIX_MAG =   1.60;   BMIX_MAG =  1.00
     AMIN     =   0.10
     WC   =   100.;   INIMIX=   1;  MIXPRE=   1;  MAXMIX= -45

 Intra band minimization:
   WEIMIN = 0.0000     energy-eigenvalue tresh-hold
   EBREAK =  0.18E-07  absolut break condition
   DEPER  =   0.30     relativ break condition

   TIME   =   0.40     timestep for ELM

  volume/ion in A,a.u.               =      90.45       610.40
  Fermi-wavevector in a.u.,A,eV,Ry     =   0.662704  1.252328  5.975355  0.439176
  Thomas-Fermi vector in A             =   1.735856

 Write flags
   LWAVE        =      F    write WAVECAR
   LDOWNSAMPLE  =      F    k-point downsampling of WAVECAR
   LCHARG       =      T    write CHGCAR
   LVTOT        =      F    write LOCPOT, total local potential
   LVHAR        =      F    write LOCPOT, Hartree potential only
   LELF         =      T    write electronic localiz. function (ELF)
   LORBIT       =     11    0 simple, 1 ext, 2 COOP (PROOUT), +10 PAW based schemes

 Dipole corrections
   LMONO  =      F    monopole corrections only (constant potential shift)
   LDIPOL =      F    correct potential (dipole corrections)
   IDIPOL =      0    1-x, 2-y, 3-z, 4-all directions
   EPSILON=  1.0000000 bulk dielectric constant

 Exchange correlation treatment:
   GGA     =    --    GGA type
   VOSKOWN=      0    Vosko Wilk Nusair interpolation
   LHFCALC =     F    Hartree Fock is set to
   LHFONE  =     F    Hartree Fock one center treatment
   AEXX    =    0.0000 exact exchange contribution

 Linear response parameters
   LEPSILON=     F    determine dielectric tensor
   LRPA    =     F    only Hartree local field effects (RPA)
   LNABLA  =     F    use nabla operator in PAW spheres
   LVEL    =     F    velocity operator in full k-point grid
   LINTERFAST=   F  fast interpolation
   KINTER  =     0    interpolate to denser k-point grid
   CSHIFT  =0.1000    complex shift for real part using Kramers Kronig
   OMEGAMAX=  -1.0    maximum frequency
   DEG_THRESHOLD= 0.2000000E-02 threshold for treating states as degnerate
   RTIME   =   -0.100 relaxation time in fs
  (WPLASMAI=    0.000 imaginary part of plasma frequency in eV, 0.658/RTIME)
   DFIELD  = 0.0000000 0.0000000 0.0000000 field for delta impulse in time

 Orbital magnetization related:
   ORBITALMAG=     F  switch on orbital magnetization
   LCHIMAG   =     F  perturbation theory with respect to B field
   DQ        =  0.001000  dq finite difference perturbation B field
   LLRAUG    =     F  two centre corrections for induced B field

 Static calculation
 charge density and potential remain constant during run
 non-spin polarized calculation
 RMM-DIIS sequential band-by-band and
  variant of blocked Davidson during initial phase
 perform sub-space diagonalisation
    before iterative eigenvector-optimisation
 no mixing
 using additional bands            5
 reciprocal scheme for non local part
 use partial core corrections
 calculate Harris-corrections to forces
   (improved forces if not selfconsistent)
 use gradient corrections
 WARNING: stress and forces are not correct
  (second derivative of E(xc) not defined)
[...]
   0.14299437  0.11430829  0.00000000       0.017
   0.14024388  0.11907038  0.00000000       0.017
   0.13749338  0.12383247  0.00000000       0.017
   0.13474289  0.12859456  0.00000000       0.017
   0.13199239  0.13335666  0.00000000       0.017
   0.12924190  0.13811875  0.00000000       0.017
   0.12649141  0.14288084  0.00000000       0.017
   0.12374091  0.14764293  0.00000000       0.017
   0.12099042  0.15240502  0.00000000       0.017
   0.11823992  0.15716711  0.00000000       0.017
   0.11548943  0.16192920  0.00000000       0.017
   0.11273893  0.16669129  0.00000000       0.017
   0.10998844  0.17145339  0.00000000       0.017
   0.10723794  0.17621548  0.00000000       0.017
   0.10448745  0.18097757  0.00000000       0.017
   0.10448745  0.18097757  0.00000000       0.017
   0.09898811  0.17145243  0.00000000       0.017
   0.09348877  0.16192730  0.00000000       0.017
   0.08798943  0.15240216  0.00000000       0.017
   0.08249009  0.14287703  0.00000000       0.017
   0.07699075  0.13335189  0.00000000       0.017
   0.07149141  0.12382676  0.00000000       0.017
   0.06599207  0.11430162  0.00000000       0.017
   0.06049273  0.10477649  0.00000000       0.017
   0.05499339  0.09525135  0.00000000       0.017
   0.04949405  0.08572622  0.00000000       0.017
   0.04399471  0.07620108  0.00000000       0.017
   0.03849538  0.06667595  0.00000000       0.017
   0.03299604  0.05715081  0.00000000       0.017
   0.02749670  0.04762568  0.00000000       0.017
   0.02199736  0.03810054  0.00000000       0.017
   0.01649802  0.02857541  0.00000000       0.017
   0.01099868  0.01905027  0.00000000       0.017
   0.00549934  0.00952514  0.00000000       0.017
   0.00000000  0.00000000  0.00000000       0.017

 k-points in reciprocal lattice and weights: HEX (hexagonal) G-M-K-G-A-L-H-A L-M K-H
   0.00000000  0.00000000  0.00000000       0.017
   0.02631579  0.00000000  0.00000000       0.017
   0.05263158  0.00000000  0.00000000       0.017
   0.07894737  0.00000000  0.00000000       0.017
   0.10526316  0.00000000  0.00000000       0.017
   0.13157895  0.00000000  0.00000000       0.017
   0.15789474  0.00000000  0.00000000       0.017
   0.18421053  0.00000000  0.00000000       0.017
   0.21052632  0.00000000  0.00000000       0.017
   0.23684211  0.00000000  0.00000000       0.017
   0.26315789  0.00000000  0.00000000       0.017
   0.28947368  0.00000000  0.00000000       0.017
   0.31578947  0.00000000  0.00000000       0.017
   0.34210526  0.00000000  0.00000000       0.017
   0.36842105  0.00000000  0.00000000       0.017
   0.39473684  0.00000000  0.00000000       0.017
   0.42105263  0.00000000  0.00000000       0.017
   0.44736842  0.00000000  0.00000000       0.017
   0.47368421  0.00000000  0.00000000       0.017
   0.50000000  0.00000000  0.00000000       0.017
   0.50000000  0.00000000  0.00000000       0.017
   0.49122632  0.01754211  0.00000000       0.017
   0.48245263  0.03508421  0.00000000       0.017
   0.47367895  0.05262632  0.00000000       0.017
   0.46490526  0.07016842  0.00000000       0.017
   0.45613158  0.08771053  0.00000000       0.017
   0.44735789  0.10525263  0.00000000       0.017
   0.43858421  0.12279474  0.00000000       0.017
   0.42981053  0.14033684  0.00000000       0.017
   0.42103684  0.15787895  0.00000000       0.017
   0.41226316  0.17542105  0.00000000       0.017
   0.40348947  0.19296316  0.00000000       0.017
   0.39471579  0.21050526  0.00000000       0.017
   0.38594211  0.22804737  0.00000000       0.017
   0.37716842  0.24558947  0.00000000       0.017
   0.36839474  0.26313158  0.00000000       0.017
   0.35962105  0.28067368  0.00000000       0.017
   0.35084737  0.29821579  0.00000000       0.017
   0.34207368  0.31575789  0.00000000       0.017
   0.33330000  0.33330000  0.00000000       0.017
   0.33330000  0.33330000  0.00000000       0.017
   0.31575789  0.31575789  0.00000000       0.017
   0.29821579  0.29821579  0.00000000       0.017
   0.28067368  0.28067368  0.00000000       0.017
   0.26313158  0.26313158  0.00000000       0.017
   0.24558947  0.24558947  0.00000000       0.017
   0.22804737  0.22804737  0.00000000       0.017
   0.21050526  0.21050526  0.00000000       0.017
   0.19296316  0.19296316  0.00000000       0.017
   0.17542105  0.17542105  0.00000000       0.017
   0.15787895  0.15787895  0.00000000       0.017
   0.14033684  0.14033684  0.00000000       0.017
   0.12279474  0.12279474  0.00000000       0.017
   0.10525263  0.10525263  0.00000000       0.017
   0.08771053  0.08771053  0.00000000       0.017
   0.07016842  0.07016842  0.00000000       0.017
   0.05262632  0.05262632  0.00000000       0.017
   0.03508421  0.03508421  0.00000000       0.017
   0.01754211  0.01754211  0.00000000       0.017
   0.00000000  0.00000000  0.00000000       0.017

 position of ions in fractional coordinates (direct lattice)
   0.33333300  0.66666700  0.12046214
   0.66666700  0.33333300  0.06984045
   0.66666600  0.33333300  0.17108384

 position of ions in cartesian coordinates  (Angst):
  -0.00000160  1.84166562  3.70950873
   1.59493001  0.92083143  2.15066543
   1.59492682  0.92083143  5.26835203

 k-point  1 :   0.0000 0.0000 0.0000  plane waves:    5987
 k-point  2 :   0.0263 0.0000 0.0000  plane waves:    5993
 k-point  3 :   0.0526 0.0000 0.0000  plane waves:    5975
 k-point  4 :   0.0789 0.0000 0.0000  plane waves:    5965
 k-point  5 :   0.1053 0.0000 0.0000  plane waves:    5969
 k-point  6 :   0.1316 0.0000 0.0000  plane waves:    5971
 k-point  7 :   0.1579 0.0000 0.0000  plane waves:    5957
 k-point  8 :   0.1842 0.0000 0.0000  plane waves:    5939
 k-point  9 :   0.2105 0.0000 0.0000  plane waves:    5913
 k-point 10 :   0.2368 0.0000 0.0000  plane waves:    5892
 k-point 11 :   0.2632 0.0000 0.0000  plane waves:    5898
 k-point 12 :   0.2895 0.0000 0.0000  plane waves:    5892
 k-point 13 :   0.3158 0.0000 0.0000  plane waves:    5874
 k-point 14 :   0.3421 0.0000 0.0000  plane waves:    5874
 k-point 15 :   0.3684 0.0000 0.0000  plane waves:    5872
 k-point 16 :   0.3947 0.0000 0.0000  plane waves:    5866
 k-point 17 :   0.4211 0.0000 0.0000  plane waves:    5848
 k-point 18 :   0.4474 0.0000 0.0000  plane waves:    5820
 k-point 19 :   0.4737 0.0000 0.0000  plane waves:    5806
 k-point 20 :   0.5000 0.0000 0.0000  plane waves:    5812
 k-point 21 :   0.5000 0.0000 0.0000  plane waves:    5812
 k-point 22 :   0.4912 0.0175 0.0000  plane waves:    5802
 k-point 23 :   0.4825 0.0351 0.0000  plane waves:    5804
 k-point 24 :   0.4737 0.0526 0.0000  plane waves:    5822
 k-point 25 :   0.4649 0.0702 0.0000  plane waves:    5818
 k-point 26 :   0.4561 0.0877 0.0000  plane waves:    5830
 k-point 27 :   0.4474 0.1053 0.0000  plane waves:    5826
 k-point 28 :   0.4386 0.1228 0.0000  plane waves:    5826
 k-point 29 :   0.4298 0.1403 0.0000  plane waves:    5816
 k-point 30 :   0.4210 0.1579 0.0000  plane waves:    5836
 k-point 31 :   0.4123 0.1754 0.0000  plane waves:    5844
 k-point 32 :   0.4035 0.1930 0.0000  plane waves:    5848
 k-point 33 :   0.3947 0.2105 0.0000  plane waves:    5846
 k-point 34 :   0.3859 0.2280 0.0000  plane waves:    5848
 k-point 35 :   0.3772 0.2456 0.0000  plane waves:    5862
 k-point 36 :   0.3684 0.2631 0.0000  plane waves:    5862
 k-point 37 :   0.3596 0.2807 0.0000  plane waves:    5874
 k-point 38 :   0.3508 0.2982 0.0000  plane waves:    5876
 k-point 39 :   0.3421 0.3158 0.0000  plane waves:    5890
 k-point 40 :   0.3333 0.3333 0.0000  plane waves:    5880
 k-point 41 :   0.3333 0.3333 0.0000  plane waves:    5880
 k-point 42 :   0.3158 0.3158 0.0000  plane waves:    5882
 k-point 43 :   0.2982 0.2982 0.0000  plane waves:    5872
 k-point 44 :   0.2807 0.2807 0.0000  plane waves:    5870
 k-point 45 :   0.2631 0.2631 0.0000  plane waves:    5870
 k-point 46 :   0.2456 0.2456 0.0000  plane waves:    5862
 k-point 47 :   0.2280 0.2280 0.0000  plane waves:    5899
 k-point 48 :   0.2105 0.2105 0.0000  plane waves:    5887
 k-point 49 :   0.1930 0.1930 0.0000  plane waves:    5885
 k-point 50 :   0.1754 0.1754 0.0000  plane waves:    5879
 k-point 51 :   0.1579 0.1579 0.0000  plane waves:    5893
 k-point 52 :   0.1403 0.1403 0.0000  plane waves:    5909
 k-point 53 :   0.1228 0.1228 0.0000  plane waves:    5923
 k-point 54 :   0.1053 0.1053 0.0000  plane waves:    5939
 k-point 55 :   0.0877 0.0877 0.0000  plane waves:    5955
 k-point 56 :   0.0702 0.0702 0.0000  plane waves:    5967
 k-point 57 :   0.0526 0.0526 0.0000  plane waves:    5977
 k-point 58 :   0.0351 0.0351 0.0000  plane waves:    5987
 k-point 59 :   0.0175 0.0175 0.0000  plane waves:    5997
 k-point 60 :   0.0000 0.0000 0.0000  plane waves:    5987

 maximum and minimum number of plane-waves per node :      2999     2898

 maximum number of plane-waves:      5997
 maximum index in each direction:
   IXMAX=    5   IYMAX=    5   IZMAX=   53
   IXMIN=   -6   IYMIN=   -5   IZMIN=  -53

 parallel 3D FFT for wavefunctions:
    minimum data exchange during FFTs selected (reduces bandwidth)
 parallel 3D FFT for charge:
    minimum data exchange during FFTs selected (reduces bandwidth)

 initial charge density was supplied:
 number of electron      18.0000005 magnetization
 keeping initial charge density in first step

 Maximum index for augmentation-charges         7169 (set IRDMAX)

 First call to EWALD:  gamma=   0.274
 Maximum number of real-space cells 6x 6x 1
 Maximum number of reciprocal cells 2x 2x11

--------------------------------------- Iteration      1(   1)  ---------------------------------------

 eigenvalue-minimisations  :  1680
 total energy-change (2. order) : 0.1305948E+03  (-0.5142399E+03)
 number of electron      18.0000005 magnetization
 augmentation part       18.0000005 magnetization

 Free energy of the ion-electron system (eV)
  alpha Z        PSCENC =        10.92610231
  Ewald energy   TEWEN  =      5354.53473861
  -Hartree energ DENC   =     -6041.41337492
  -exchange      EXHF   =         0.00000000
  -V(xc)+E(xc)   XCENC  =       -35.17112764
  PAW double counting   =       473.39069734     -397.59830514
  entropy T*S    EENTRO =        -0.03640884
  eigenvalues    EBANDS =        -5.19259064
  atomic energy  EATOM  =       771.15511399
  Solvation  Ediel_sol  =         0.00000000
  free energy    TOTEN  =       130.59484507 eV

  energy without entropy =      130.63125391  energy(sigma->0) =      130.61304949

[...]

 eigenvalue-minimisations  :  2942
 total energy-change (2. order) :-0.1358364E+03  (-0.1251226E+03)
 number of electron      18.0000005 magnetization
 augmentation part       18.0000005 magnetization

[...]

 eigenvalue-minimisations  :  2404
 total energy-change (2. order) :-0.2925688E-04  (-0.2933213E-04)
 number of electron      18.0000005 magnetization
 augmentation part       18.0000005 magnetization

[...]

--------------------------------------- Iteration      1(   8)  ---------------------------------------

 eigenvalue-minimisations  :  1296
 total energy-change (2. order) : 0.3267751E-06  (-0.6448493E-07)
 number of electron      18.0000005 magnetization
 augmentation part       18.0000005 magnetization

 Free energy of the ion-electron system (eV)
  alpha Z        PSCENC =        10.92610231
  Ewald energy   TEWEN  =      5354.53473861
  -Hartree energ DENC   =     -6041.41337492
  -exchange      EXHF   =         0.00000000
  -V(xc)+E(xc)   XCENC  =       -35.17112764
  PAW double counting   =       473.39069734     -397.59830514
  entropy T*S    EENTRO =        -0.00000000
  eigenvalues    EBANDS =      -157.30515542
  atomic energy  EATOM  =       771.15511399
  Solvation  Ediel_sol  =         0.00000000
  free energy    TOTEN  =       -21.48131086 eV

  energy without entropy =      -21.48131086  energy(sigma->0) =      -21.48131086

 average (electrostatic) potential at core
  the test charge radii are     1.2296  0.9698
  (the norm of the test charge is              1.0000)
       1 -47.1875       2 -95.0369       3 -95.0352

 E-fermi :  -2.9300     XC(G=0):  -2.4770     alpha+bet : -2.3288

 k-point     1 :       0.0000    0.0000    0.0000
  band No.  band energies     occupation
      1     -17.8050      2.00000
      2     -16.5767      2.00000
      3      -9.3242      2.00000
      4      -6.3789      2.00000
      5      -6.3789      2.00000
      6      -5.4671      2.00000
      7      -5.2586      2.00000
      8      -5.2586      2.00000
      9      -3.7476      2.00000
     10      -0.9813      0.00000
     11      -0.9813      0.00000
     12      -0.7462      0.00000
     13      -0.7462      0.00000
     14       1.6738      0.00000

[...]

 k-point    60 :       0.0000    0.0000    0.0000
  band No.  band energies     occupation
      1     -17.8050      2.00000
      2     -16.5767      2.00000
      3      -9.3242      2.00000
      4      -6.3789      2.00000
      5      -6.3789      2.00000
      6      -5.4671      2.00000
      7      -5.2586      2.00000
      8      -5.2586      2.00000
      9      -3.7476      2.00000
     10      -0.9813      0.00000
     11      -0.9813      0.00000
     12      -0.7462      0.00000
     13      -0.7462      0.00000
     14       1.6665      0.00000

 soft charge-density along one line, spin component           1
         0         1         2         3         4         5         6         7         8         9
 total charge-density along one line

------------------------ aborting loop because EDIFF is reached ----------------------------------------

 total charge

# of ion       s       p       d       tot
    1        0.409   0.581   4.519   5.510
    2        1.356   2.302   0.000   3.658
    3        1.356   2.302   0.000   3.657
tot          3.121   5.184   4.519  12.825

  FORCE on cell =-STRESS in cart. coord.  units (eV):
  Direction    XX          YY          ZZ          XY          YZ          ZX
  Alpha Z    10.92610    10.92610    10.92610
  Ewald    5921.93836  5921.93880 -6489.34278     0.00019     0.00000     0.00013
  Hartree  6005.67068  6005.67069 -5967.31891     0.00002    -0.00000    -0.00000
  E(xc)     -70.30105   -70.30106   -70.89018    -0.00000     0.00000    -0.00000
  Local  -12204.07048-12204.07076 12171.92447    -0.00016    -0.00000    -0.00006
  n-local   123.35202   122.97737   129.53946    -0.06086    -0.00004    -0.00021
  augment   -24.72761   -24.72760   -26.23919     0.00001     0.00000    -0.00000
  Kinetic   234.72405   239.23576   242.33863    -6.23672     0.00011     0.00012
  Fock        0.00000     0.00000     0.00000     0.00000     0.00000     0.00000
  Total      -0.41931    -0.41931     0.93760    -0.00000     0.00000    -0.00000
  in kB      -2.47577    -2.47577     5.53589    -0.00000     0.00000    -0.00000

 VOLUME and BASIS-vectors are now :
  energy-cutoff  :      450.00
  volume of cell :      271.36
      direct lattice vectors                 reciprocal lattice vectors
     3.189856830  0.000000000  0.000000000     0.313493694  0.180995668  0.000000000
    -1.594928415  2.762497050  0.000000000     0.000000000  0.361991337  0.000000000
     0.000000000  0.000000000 30.793978868     0.000000000  0.000000000  0.032473881

  length of vectors
     3.189856830  3.189856830 30.793978868     0.361991337  0.361991337  0.032473881

 FORCES acting on ions
    electron-ion (+dipol)            ewald-force                    non-local-force                 convergence-correction
   -.473E-05 -.453E-05 0.116E-05   0.942E-04 -.109E-03 0.348E-06   0.555E-16 0.000E+00 0.163E-18   -.244E-05 0.155E-05 0.365E-02
   -.846E-03 0.490E-03 0.599E+03   -.873E-04 0.544E-04 -.601E+03   -.208E-16 0.208E-16 0.380E+01   -.238E-05 0.109E-05 -.197E+01
   0.858E-03 0.490E-03 -.599E+03   -.692E-05 0.544E-04 0.601E+03   -.139E-16 0.243E-16 -.380E+01   0.203E-05 0.109E-05 0.198E+01
   0.766E-05 0.975E-03 0.390E-04   0.592E-14 -.327E-14 0.000E+00   0.208E-16 0.451E-16 0.444E-15   -.279E-05 0.372E-05 0.974E-02

 POSITION                                       TOTAL-FORCE (eV/Angst)
     -0.00000      1.84167      3.70951        -0.000000      0.000000      0.000000
      1.59493      0.92083      2.15067        -0.000000     -0.000000     -0.141942
      1.59493      0.92083      5.26835         0.000000      0.000000      0.141942
    total drift:                                0.000005      0.000979      0.009783

  FREE ENERGIE OF THE ION-ELECTRON SYSTEM (eV)
  free  energy   TOTEN  =       -21.48131086 eV

  energy  without entropy=      -21.48131086  energy(sigma->0) =      -21.48131086

 total charge

# of ion       s       p       d       tot
    1        0.409   0.581   4.519   5.510
    2        1.356   2.302   0.000   3.658
    3        1.356   2.302   0.000   3.657
tot          3.121   5.184   4.519  12.825