 vasp.5.4.4.18Apr17-6-g9f103f2a35 (build Jun 30 2017 11:15:00) complex

 executed on    STALLO_VASP_5.4.4 date 2019.11.08  11:48:47

 INCAR:
 POTCAR:   PAW_PBE Mo 08Apr2002
 POTCAR:    PAW_PBE S 17Jan2003
 POTCAR:   PAW_PBE Mo 08Apr2002
   VRHFIN =Mo: 4p5s4d

   TITEL  = PAW_PBE Mo 08Apr2002
   POMASS =   95.940; ZVAL   =    6.000    mass and valenz
   ENMAX  =  224.584; ENMIN  =  168.438 eV
   QCUT   =   -4.063; QGAM   =    8.126    optimization parameters

   Description
     l     E      TYP  RCUT    TYP  RCUT
     2   .000     23  2.500
     2   .000     23  2.500
     0   .000     23  2.600
     0  1.000     23  2.600
     1   .400     23  2.750
     1  2.000     23  2.750
     3   .000      7   .000

 POTCAR:    PAW_PBE S 17Jan2003
   VRHFIN =S : s2p4

   TITEL  = PAW_PBE S 17Jan2003
   POMASS =   32.066; ZVAL   =    6.000    mass and valenz
   ENMAX  =  280.000; ENMIN  =  194.016 eV
   QCUT   =   -4.360; QGAM   =    8.721    optimization parameters

   Description
     l     E      TYP  RCUT    TYP  RCUT
     0   .000     23  1.900
     0   .000     23  1.900
     1   .000     23  1.900
     1   .000     23  1.900
     2   .000     23  1.900

 Optimization of the real space projectors (new method)

 maximal supplied QI-value         = 13.61
 optimisation between [QCUT,QGAM] = [  8.03, 16.19] = [ 18.05, 73.41] Ry
 Optimized for a Real-space Cutoff    1.97 Angstroem

   l    n(q)    QCUT    max X(q) W(low)/X(q) W(high)/X(q)  e(spline)
   2      9     8.028     3.671    0.48E-05    0.25E-04    0.70E-07
   2      9     8.028    25.193    0.26E-03    0.70E-03    0.27E-06
   0     10     8.028    26.379    0.19E-04    0.25E-05    0.73E-08
   0     10     8.028    49.709    0.28E-04    0.49E-04    0.74E-07
   1      9     8.028     7.852    0.15E-04    0.15E-05    0.29E-07
   1      9     8.028    10.693    0.92E-04    0.27E-04    0.86E-07
 Optimization of the real space projectors (new method)

 maximal supplied QI-value         = 19.84
 optimisation between [QCUT,QGAM] = [  7.94, 16.07] = [ 17.64, 72.34] Ry
 Optimized for a Real-space Cutoff    1.55 Angstroem

   l    n(q)    QCUT    max X(q) W(low)/X(q) W(high)/X(q)  e(spline)
   0      7     7.937     5.487    0.27E-04    0.20E-04    0.12E-07
   0      7     7.937    85.627    0.10E-03    0.36E-03    0.16E-06
   1      7     7.937     3.530    0.15E-04    0.55E-04    0.56E-07
   1      7     7.937    42.714    0.49E-03    0.85E-03    0.12E-06
 PAW_PBE Mo 08Apr2002                   :
  PAW_PBE S 17Jan2003                   :

 POSCAR: MoS2_mp-2815_computed
  positions in cartesian coordinates
  velocities in cartesian coordinates
 exchange correlation table for  LEXCH =        8
   RHO(1)=    0.500       N(1)  =     2000
   RHO(2)=  100.500       N(2)  =     4000

 ion  position               nearest neighbor table
   1  0.333  0.667  0.083-   3 2.42   2 2.42   2 2.42   3 2.42   3 2.42   2 2.42
   2  0.667  0.333  0.048-   1 2.42   1 2.42   1 2.42
   3  0.667  0.333  0.118-   1 2.42   1 2.42   1 2.42

  LATTYP: Found a hexagonal cell.
 ALAT       =     3.1903157300
 C/A-ratio  =    14.0672610795

  Lattice vectors:

 A1 = (   3.1903157300,   0.0000000000,   0.0000000000)
 A2 = (  -1.5951578650,   2.7628944683,   0.0000000000)
 A3 = (   0.0000000000,   0.0000000000,  44.8790043000)

Analysis of symmetry for initial positions (statically):
 Subroutine PRICEL returns:
 Original cell was already a primitive cell.

 Routine SETGRP: Setting up the symmetry group for a
 hexagonal supercell.

 Subroutine GETGRP returns: Found 12 space group operations
 (whereof  6 operations were pure point group operations)
 out of a pool of 24 trial point group operations.

The static configuration has the point symmetry C_3v.
 The point group associated with its full space group is D_3h.

Analysis of symmetry for dynamics (positions and initial velocities):
 Subroutine PRICEL returns:
 Original cell was already a primitive cell.

 Routine SETGRP: Setting up the symmetry group for a
 hexagonal supercell.

 Subroutine GETGRP returns: Found 12 space group operations
 (whereof  6 operations were pure point group operations)
 out of a pool of 24 trial point group operations.

The dynamic configuration has the point symmetry C_3v.
 The point group associated with its full space group is D_3h.

 Subroutine INISYM returns: Found 12 space group operations
 (whereof  6 operations are pure point group operations),
 and found     1 'primitive' translations

 KPOINTS: k-density: 4.0

Automatic generation of k-mesh.
Space group operators:
 irot       det(A)        alpha          n_x          n_y          n_z        tau_x        tau_y        tau_z
    1     1.000000     0.000001     1.000000     0.000000     0.000000     0.000000     0.000000     0.000000
    2     1.000000   120.000000     0.000000     0.000000    -1.000000     0.000000     0.000000     0.000000
    3     1.000000   120.000000     0.000000     0.000000     1.000000     0.000000     0.000000     0.000000
    4    -1.000000   180.000000     1.000000    -0.000000     0.000000     0.000000     0.000000     0.000000
    5    -1.000000   179.999999     0.500000    -0.866025     0.000000     0.000000     0.000000     0.000000
    6    -1.000000   179.999999    -0.500000    -0.866025     0.000000     0.000000     0.000000     0.000000
    7    -1.000000    60.000000     0.000000     0.000000    -1.000000    -0.000000     0.000000     0.165768
    8    -1.000000   180.000000     0.000000     0.000000     1.000000     0.000000     0.000000     0.165768
    9    -1.000000    60.000000     0.000000     0.000000     1.000000     0.000000     0.000001     0.165768
   10     1.000000   180.000000     0.866025    -0.500000     0.000000     0.000000     0.000000     0.165768
   11     1.000000   179.999999     0.000000     1.000000     0.000000     0.000000     0.000000     0.165768
   12     1.000000   180.000000     0.866025     0.500000     0.000000    -0.000000     0.000001     0.165768

 Subroutine IBZKPT returns following result:

 Found     10 irreducible k-points:

 Following reciprocal coordinates:
            Coordinates               Weight
  0.000000  0.000000  0.000000      1.000000
  0.125000  0.000000  0.000000      6.000000
  0.250000  0.000000  0.000000      6.000000
  0.375000  0.000000  0.000000      6.000000
  0.500000  0.000000  0.000000      3.000000
  0.125000  0.125000  0.000000      6.000000
  0.250000  0.125000  0.000000     12.000000
  0.375000  0.125000  0.000000     12.000000
  0.250000  0.250000  0.000000      6.000000
  0.375000  0.250000  0.000000      6.000000

 Following cartesian coordinates:
            Coordinates               Weight
  0.000000  0.000000  0.000000      1.000000
  0.039181  0.022621  0.000000      6.000000
  0.078362  0.045242  0.000000      6.000000
  0.117543  0.067864  0.000000      6.000000
  0.156724  0.090485  0.000000      3.000000
  0.039181  0.067864  0.000000      6.000000
  0.078362  0.090485  0.000000     12.000000
  0.117543  0.113106  0.000000     12.000000
  0.078362  0.135727  0.000000      6.000000
  0.117543  0.158348  0.000000      6.000000

 SYSTEM =  unknown system
 POSCAR =  MoS2_mp-2815_computed

 Startparameter for this run:
   NWRITE =      2    write-flag & timer
   PREC   = normal    normal or accurate (medium, high low for compatibility)
   ISTART =      0    job   : 0-new  1-cont  2-samecut
   ICHARG =      2    charge: 1-file 2-atom 10-const
   ISPIN  =      1    spin polarized calculation?
   LNONCOLLINEAR =      F non collinear calculations
   LSORBIT =      F    spin-orbit coupling
   INIWAV =      1    electr: 0-lowe 1-rand  2-diag
   LASPH  =      F    aspherical Exc in radial PAW
   METAGGA=      F    non-selfconsistent MetaGGA calc.

 Electronic Relaxation 1
   ENCUT  =  250.0 eV  18.37 Ry    4.29 a.u.   4.11  4.11 57.86*2*pi/ulx,y,z
   ENINI  =  250.0     initial cutoff
   ENAUG  =  345.3 eV  augmentation charge cutoff
   NELM   =     60;   NELMIN=  4; NELMDL= -5     # of ELM steps
   EDIFF  = 0.1E-05   stopping-criterion for ELM
   LREAL  =      T    real-space projection
   NLSPLINE    = F    spline interpolate recip. space projectors
   LCOMPAT=      F    compatible to vasp.4.4
   GGA_COMPAT  = T    GGA compatible to vasp.4.4-vasp.4.6
   LMAXPAW     = -100 max onsite density
   LMAXMIX     =    2 max onsite mixed and CHGCAR
   VOSKOWN=      0    Vosko Wilk Nusair interpolation
   ROPT   =   -0.00050  -0.00050
 Ionic relaxation
   EDIFFG = 0.1E-04   stopping-criterion for IOM
   NSW    =      0    number of steps for IOM
   NBLOCK =      1;   KBLOCK =      1    inner block; outer block
   IBRION =     -1    ionic relax: 0-MD 1-quasi-New 2-CG
   NFREE  =      0    steps in history (QN), initial steepest desc. (CG)
   ISIF   =      2    stress and relaxation
   IWAVPR =     10    prediction:  0-non 1-charg 2-wave 3-comb
   ISYM   =      2    0-nonsym 1-usesym 2-fastsym
   LCORR  =      T    Harris-Foulkes like correction to forces

   POTIM  = 0.5000    time-step for ionic-motion
   TEIN   =    0.0    initial temperature
   TEBEG  =    0.0;   TEEND  =   0.0 temperature during run
   SMASS  =  -3.00    Nose mass-parameter (am)
   estimated Nose-frequenzy (Omega)   =  0.10E-29 period in steps =****** mass=  -0.233E-27a.u.
   SCALEE = 1.0000    scale energy and forces
   NPACO  =    256;   APACO  = 16.0  distance and # of slots for P.C.
   PSTRESS=    0.0 pullay stress

  Mass of Ions in am
   POMASS =  95.94 32.07
  Ionic Valenz
   ZVAL   =   6.00  6.00
  Atomic Wigner-Seitz radii
  virtual crystal weights
   VCA    =   1.00  1.00
   NELECT =      18.0000    total number of electrons
   NUPDOWN=      -1.0000    fix difference up-down

 DOS related values:
   EMIN   = -12.00;   EMAX   = 12.00  energy-range for DOS
   EFERMI =   0.00
   ISMEAR =     0;   SIGMA  =   0.20  broadening in eV -4-tet -1-fermi 0-gaus

 Electronic relaxation 2 (details)
   IALGO  =     68    algorithm
   LDIAG  =      T    sub-space diagonalisation (order eigenvalues)
   LSUBROT=      F    optimize rotation matrix (better conditioning)
   TURBO    =      0    0=normal 1=particle mesh
   IRESTART =      0    0=no restart 2=restart with 2 vectors
   NREBOOT  =      0    no. of reboots
   NMIN     =      0    reboot dimension
   EREF     =   0.00    reference energy to select bands
   IMIX   =      4    mixing-type and parameters
     AMIX     =   0.40;   BMIX     =  1.00
     AMIX_MAG =   1.60;   BMIX_MAG =  1.00
     AMIN     =   0.10
     WC   =   100.;   INIMIX=   1;  MIXPRE=   1;  MAXMIX= -45

 Intra band minimization:
   WEIMIN = 0.0000     energy-eigenvalue tresh-hold
   EBREAK =  0.18E-07  absolut break condition
   DEPER  =   0.30     relativ break condition

   TIME   =   0.40     timestep for ELM

  volume/ion in A,a.u.               =     131.86       889.85
  Fermi-wavevector in a.u.,A,eV,Ry     =   0.584456  1.104462  4.647601  0.341589
  Thomas-Fermi vector in A             =   1.630159

 Write flags
   LWAVE        =      F    write WAVECAR
   LDOWNSAMPLE  =      F    k-point downsampling of WAVECAR
   LCHARG       =      T    write CHGCAR
   LVTOT        =      F    write LOCPOT, total local potential
   LVHAR        =      F    write LOCPOT, Hartree potential only
   LELF         =      T    write electronic localiz. function (ELF)
   LORBIT       =     11    0 simple, 1 ext, 2 COOP (PROOUT), +10 PAW based schemes

 Dipole corrections
   LMONO  =      F    monopole corrections only (constant potential shift)
   LDIPOL =      F    correct potential (dipole corrections)
   IDIPOL =      0    1-x, 2-y, 3-z, 4-all directions
   EPSILON=  1.0000000 bulk dielectric constant

 Exchange correlation treatment:
   GGA     =    --    GGA type
   VOSKOWN=      0    Vosko Wilk Nusair interpolation
   LHFCALC =     F    Hartree Fock is set to
   LHFONE  =     F    Hartree Fock one center treatment
   AEXX    =    0.0000 exact exchange contribution

 Linear response parameters
   LEPSILON=     F    determine dielectric tensor
   LRPA    =     F    only Hartree local field effects (RPA)
   LNABLA  =     F    use nabla operator in PAW spheres
   LVEL    =     F    velocity operator in full k-point grid
   LINTERFAST=   F  fast interpolation
   KINTER  =     0    interpolate to denser k-point grid
   CSHIFT  =0.1000    complex shift for real part using Kramers Kronig
   OMEGAMAX=  -1.0    maximum frequency
   DEG_THRESHOLD= 0.2000000E-02 threshold for treating states as degnerate
   RTIME   =   -0.100 relaxation time in fs
  (WPLASMAI=    0.000 imaginary part of plasma frequency in eV, 0.658/RTIME)
   DFIELD  = 0.0000000 0.0000000 0.0000000 field for delta impulse in time

 Orbital magnetization related:
   ORBITALMAG=     F  switch on orbital magnetization
   LCHIMAG   =     F  perturbation theory with respect to B field
   DQ        =  0.001000  dq finite difference perturbation B field
   LLRAUG    =     F  two centre corrections for induced B field

 Static calculation
 charge density and potential will be updated during run
 non-spin polarized calculation
 RMM-DIIS sequential band-by-band and
  variant of blocked Davidson during initial phase
 perform sub-space diagonalisation
    before iterative eigenvector-optimisation
 modified Broyden-mixing scheme, WC =      100.0
 initial mixing is a Kerker type mixing with AMIX =  0.4000 and BMIX =      1.0000
 Hartree-type preconditioning will be used
 using additional bands            5
 real space projection scheme for non local part
 use partial core corrections
 calculate Harris-corrections to forces
   (improved forces if not selfconsistent)
 use gradient corrections
 use of overlap-Matrix (Vanderbilt PP)
 Gauss-broadening in eV      SIGMA  =   0.20

  energy-cutoff  :      250.00
  volume of cell :      395.59
      direct lattice vectors                 reciprocal lattice vectors
     3.190315730  0.000000000  0.000000000     0.313448600  0.180969634  0.000000000
    -1.595157865  2.762894468  0.000000000     0.000000000  0.361939267  0.000000000
     0.000000000  0.000000000 44.879004300     0.000000000  0.000000000  0.022282134

  length of vectors
     3.190315730  3.190315730 44.879004300     0.361939267  0.361939267  0.022282134

 k-points in units of 2pi/SCALE and weight: k-density: 4.0
   0.00000000  0.00000000  0.00000000       0.016
   0.03918108  0.02262120  0.00000000       0.094
   0.07836215  0.04524241  0.00000000       0.094
   0.11754323  0.06786361  0.00000000       0.094
   0.15672430  0.09048482  0.00000000       0.047
   0.03918108  0.06786361  0.00000000       0.094
   0.07836215  0.09048482  0.00000000       0.188
   0.11754323  0.11310602  0.00000000       0.188
   0.07836215  0.13572723  0.00000000       0.094
   0.11754323  0.15834843  0.00000000       0.094

 k-points in reciprocal lattice and weights: k-density: 4.0
   0.00000000  0.00000000  0.00000000       0.016
   0.12500000  0.00000000  0.00000000       0.094
   0.25000000  0.00000000  0.00000000       0.094
   0.37500000  0.00000000  0.00000000       0.094
   0.50000000  0.00000000  0.00000000       0.047
   0.12500000  0.12500000  0.00000000       0.094
   0.25000000  0.12500000  0.00000000       0.188
   0.37500000  0.12500000  0.00000000       0.188
   0.25000000  0.25000000  0.00000000       0.094
   0.37500000  0.25000000  0.00000000       0.094

 position of ions in fractional coordinates (direct lattice)
   0.33333300  0.66666700  0.08288399
   0.66666700  0.33333300  0.04801503
   0.66666600  0.33333300  0.11775296

 position of ions in cartesian coordinates  (Angst):
  -0.00000160  1.84193057  3.71975108
   1.59515946  0.92096390  2.15486668
   1.59515627  0.92096390  5.28463547

 k-point  1 :   0.0000 0.0000 0.0000  plane waves:    3421
 k-point  2 :   0.1250 0.0000 0.0000  plane waves:    3479
 k-point  3 :   0.2500 0.0000 0.0000  plane waves:    3543
 k-point  4 :   0.3750 0.0000 0.0000  plane waves:    3593
 k-point  5 :   0.5000 0.0000 0.0000  plane waves:    3596
 k-point  6 :   0.1250 0.1250 0.0000  plane waves:    3510
 k-point  7 :   0.2500 0.1250 0.0000  plane waves:    3553
 k-point  8 :   0.3750 0.1250 0.0000  plane waves:    3557
 k-point  9 :   0.2500 0.2500 0.0000  plane waves:    3572
 k-point 10 :   0.3750 0.2500 0.0000  plane waves:    3576

 maximum and minimum number of plane-waves per node :      1805     1699

 maximum number of plane-waves:      3596
 maximum index in each direction:
   IXMAX=    4   IYMAX=    4   IZMAX=   57
   IXMIN=   -4   IYMIN=   -4   IZMIN=  -57

 real space projection operators:
  max/ min on nodes  :        208.12        208.08

 parallel 3D FFT for wavefunctions:
    minimum data exchange during FFTs selected (reduces bandwidth)
 parallel 3D FFT for charge:
    minimum data exchange during FFTs selected (reduces bandwidth)

 Broyden mixing: mesh for mixing (old mesh)
   NGX =  9   NGY =  9   NGZ =115
  (NGX  = 24   NGY  = 24   NGZ  =360)
  gives a total of   9315 points

 initial charge density was supplied:
 charge density of overlapping atoms calculated
 number of electron      18.0000000 magnetization
 keeping initial charge density in first step

 Maximum index for non-local projection operator         1029
 Maximum index for augmentation-charges         1040 (set IRDMAX)

 First call to EWALD:  gamma=   0.241
 Maximum number of real-space cells 6x 6x 1
 Maximum number of reciprocal cells 1x 1x14

--------------------------------------- Iteration      1(   1)  ---------------------------------------

 eigenvalue-minimisations  :   336
 total energy-change (2. order) : 0.9312315E+02  (-0.4246769E+03)
 number of electron      18.0000000 magnetization
 augmentation part       18.0000000 magnetization

 Free energy of the ion-electron system (eV)
  alpha Z        PSCENC =         7.49484938
  Ewald energy   TEWEN  =      9193.78907479
  -Hartree energ DENC   =     -9850.75048635
  -exchange      EXHF   =         0.00000000
  -V(xc)+E(xc)   XCENC  =       -36.31055263
  PAW double counting   =       406.88651198     -329.34073203
  entropy T*S    EENTRO =        -0.05688632
  eigenvalues    EBANDS =       -69.65720679
  atomic energy  EATOM  =       771.06857575
  Solvation  Ediel_sol  =         0.00000000
  free energy    TOTEN  =        93.12314778 eV

  energy without entropy =       93.18003409  energy(sigma->0) =       93.15159094

[...]

 eigenvalue-minimisations  :   482
 total energy-change (2. order) :-0.1039471E+03  (-0.9610037E+02)
 number of electron      18.0000000 magnetization
 augmentation part       18.0000000 magnetization

[...]

 Broyden mixing:
  rms(total) = 0.69124E+00    rms(broyden)= 0.69105E+00
  rms(prec ) = 0.71202E+00
  weight for this iteration     100.00

[...]

 eigenvalues of (default mixing * dielectric matrix)
  average eigenvalue GAMMA=   0.8362
  0.8362

[...]

 eigenvalue-minimisations  :   310
 total energy-change (2. order) : 0.5381901E-04  (-0.4055784E-04)
 number of electron      17.9999912 magnetization
 augmentation part       -0.5605017 magnetization

[...]

 Broyden mixing:
  rms(total) = 0.38689E-03    rms(broyden)= 0.35786E-03
  rms(prec ) = 0.39404E-03
  weight for this iteration     100.00

[...]

 Broyden mixing:
  rms(total) = 0.22432E-03    rms(broyden)= 0.16949E-03
  rms(prec ) = 0.18996E-03
  weight for this iteration     100.00
  WARNING: grid for Broyden might be to small

[...]

 Broyden mixing:
  rms(total) = 0.15673E-03    rms(broyden)= 0.54778E-04
  rms(prec ) = 0.56858E-04
  weight for this iteration     100.00
  WARNING: grid for Broyden might be to small

 eigenvalues of (default mixing * dielectric matrix)
  average eigenvalue GAMMA=   2.4086
  8.1876  5.9185  3.5676  2.7769  2.4089  1.8234  1.8234  1.4875  0.6647  1.1145
  1.1145  0.9567  0.9567  0.9202

[...]

--------------------------------------- Iteration      1(  20)  ---------------------------------------

 eigenvalue-minimisations  :   135
 total energy-change (2. order) :-0.7609968E-06  (-0.7894331E-08)
 number of electron      17.9999912 magnetization
 augmentation part       -0.5602728 magnetization

 Free energy of the ion-electron system (eV)
  alpha Z        PSCENC =         7.49484938
  Ewald energy   TEWEN  =      9193.78907479
  -Hartree energ DENC   =     -9864.98297341
  -exchange      EXHF   =         0.00000000
  -V(xc)+E(xc)   XCENC  =       -35.17189765
  PAW double counting   =       478.70083265     -402.89186705
  entropy T*S    EENTRO =        -0.00000000
  eigenvalues    EBANDS =      -169.76960678
  atomic energy  EATOM  =       771.06857575
  Solvation  Ediel_sol  =         0.00000000
  free energy    TOTEN  =       -21.76301233 eV

  energy without entropy =      -21.76301233  energy(sigma->0) =      -21.76301233

 average (electrostatic) potential at core
  the test charge radii are     1.2296  0.9698
  (the norm of the test charge is              1.0000)
       1 -47.8969       2 -95.7492       3 -95.7492

 E-fermi :  -3.6200     XC(G=0):  -1.8357     alpha+bet : -1.5975

 k-point     1 :       0.0000    0.0000    0.0000
  band No.  band energies     occupation
      1     -18.4791      2.00000
      2     -17.2707      2.00000
      3      -9.9884      2.00000
      4      -7.0270      2.00000
      5      -7.0267      2.00000
      6      -6.1669      2.00000
      7      -5.9195      2.00000
      8      -5.9190      2.00000
      9      -4.4446      2.00000
     10      -1.6705      0.00000
     11      -1.6697      0.00000
     12      -1.4479      0.00000
     13      -1.4472      0.00000
     14       0.9561      0.00000

[...]

 k-point    10 :       0.3750    0.2500    0.0000
  band No.  band energies     occupation
      1     -16.4887      2.00000
      2     -16.3107      2.00000
      3      -9.6815      2.00000
      4      -9.3329      2.00000
      5      -8.3060      2.00000
      6      -7.6440      2.00000
      7      -7.4157      2.00000
      8      -6.4505      2.00000
      9      -4.5759      2.00000
     10      -2.6218      0.00000
     11      -1.3062      0.00000
     12      -1.1341      0.00000
     13       0.2445      0.00000
     14       2.5306      0.00000

 soft charge-density along one line, spin component           1
         0         1         2         3         4         5         6         7         8         9
 total charge-density along one line

------------------------ aborting loop because EDIFF is reached ----------------------------------------

 total charge

# of ion       s       p       d       tot
    1        0.414   0.593   4.443   5.450
    2        1.366   2.356   0.000   3.722
    3        1.366   2.356   0.000   3.722
tot          3.145   5.305   4.443  12.894

  DFT-D2 method for vdW energy calculation

  Parameters of vdW forcefield:
         C6(Jnm^6/mol)     R0(A)
   Mo      24.670          1.639
   S        5.570          1.683

  IVDW =   1
  VDW_RADIUS =    50.000 A
  VDW_S6 =     0.750
  VDW_SR =     1.000
  VDW_D =    20.000
  LVDW_EWALD = F

  Number of pair interactions contributing to vdW energy:    7353
  Edisp (eV):   -0.59068

  FORCE on cell =-STRESS in cart. coord.  units (eV):
  Direction    XX          YY          ZZ          XY          YZ          ZX
  Alpha Z     7.49485     7.49485     7.49485
  Ewald    9760.65523  9760.65567-10327.52212     0.00019     0.00000     0.00012
  Hartree  9826.74591  9826.74592 -9788.50441     0.00002     0.00000    -0.00000
  E(xc)     -70.33551   -70.33548   -70.93978     0.00003    -0.00002    -0.00002
  Local  -19863.81414-19863.81572 19833.60271    -0.00129    -0.00029    -0.00022
  n-local   127.32533   125.94126   131.87040    -0.26475    -0.00003    -0.00011
  augment   -25.66661   -25.66616   -26.76928     0.00039    -0.00001    -0.00001
  Kinetic   236.13807   238.93404   240.02839    -7.43250     0.00003     0.00004
  Fock        0.00000     0.00000     0.00000     0.00000     0.00000     0.00000
  vdW         0.16062     0.16062    -0.13331     0.00000     0.00000    -0.00000
  Total      -0.59063    -0.59063    -0.87254     0.00000     0.00000     0.00000
  in kB      -2.39212    -2.39212    -3.53390     0.00000     0.00000     0.00000

 VOLUME and BASIS-vectors are now :
  energy-cutoff  :      250.00
  volume of cell :      395.59
      direct lattice vectors                 reciprocal lattice vectors
     3.190315730  0.000000000  0.000000000     0.313448600  0.180969634  0.000000000
    -1.595157865  2.762894468  0.000000000     0.000000000  0.361939267  0.000000000
     0.000000000  0.000000000 44.879004300     0.000000000  0.000000000  0.022282134

  length of vectors
     3.190315730  3.190315730 44.879004300     0.361939267  0.361939267  0.022282134

 FORCES acting on ions
    electron-ion (+dipol)            ewald-force                    non-local-force                 convergence-correction
   -.817E-05 -.143E-05 -.377E-04   0.931E-04 -.108E-03 0.418E-06   -.451E-16 0.000E+00 -.271E-19   0.125E-08 -.224E-08 0.236E-07
   -.122E-02 -.171E-04 0.631E+03   -.864E-04 0.538E-04 -.636E+03   0.139E-16 -.173E-17 0.496E+01   -.462E-08 0.261E-08 -.617E-03
   0.113E-02 0.107E-02 -.631E+03   -.674E-05 0.538E-04 0.636E+03   0.520E-17 0.000E+00 -.496E+01   0.389E-08 0.363E-08 0.617E-03
   -.984E-04 0.105E-02 0.272E-03   0.596E-14 0.300E-14 0.000E+00   -.260E-16 -.173E-17 0.888E-15   0.525E-09 0.400E-08 0.648E-07

 POSITION                                       TOTAL-FORCE (eV/Angst)
     -0.00000      1.84193      3.71975         0.000000     -0.000000      0.000000
      1.59516      0.92096      2.15487         0.000000      0.000000      0.104907
      1.59516      0.92096      5.28464        -0.000000      0.000000     -0.104907
    total drift:                               -0.000098      0.001051      0.000272

  FREE ENERGIE OF THE ION-ELECTRON SYSTEM (eV)
  free  energy   TOTEN  =       -22.35369612 eV

  energy  without entropy=      -22.35369612  energy(sigma->0) =      -22.35369612

 total charge

# of ion       s       p       d       tot
    1        0.414   0.593   4.443   5.450
    2        1.366   2.356   0.000   3.722
    3        1.366   2.356   0.000   3.722
tot          3.145   5.305   4.443  12.894