 vasp.5.4.4.18Apr17-6-g9f103f2a35 (build Jun 30 2017 11:15:00) complex

 executed on    STALLO_VASP_5.4.4 date 2019.11.08  12:22:18

 INCAR:
 POTCAR:   PAW_PBE Mo 08Apr2002
 POTCAR:    PAW_PBE S 17Jan2003
 POTCAR:   PAW_PBE Mo 08Apr2002
   VRHFIN =Mo: 4p5s4d

   TITEL  = PAW_PBE Mo 08Apr2002
   POMASS =   95.940; ZVAL   =    6.000    mass and valenz
   ENMAX  =  224.584; ENMIN  =  168.438 eV
   QCUT   =   -4.063; QGAM   =    8.126    optimization parameters

   Description
     l     E      TYP  RCUT    TYP  RCUT
     2   .000     23  2.500
     2   .000     23  2.500
     0   .000     23  2.600
     0  1.000     23  2.600
     1   .400     23  2.750
     1  2.000     23  2.750
     3   .000      7   .000

 POTCAR:    PAW_PBE S 17Jan2003
   VRHFIN =S : s2p4

   TITEL  = PAW_PBE S 17Jan2003
   POMASS =   32.066; ZVAL   =    6.000    mass and valenz
   ENMAX  =  280.000; ENMIN  =  194.016 eV
   QCUT   =   -4.360; QGAM   =    8.721    optimization parameters

   Description
     l     E      TYP  RCUT    TYP  RCUT
     0   .000     23  1.900
     0   .000     23  1.900
     1   .000     23  1.900
     1   .000     23  1.900
     2   .000     23  1.900

 PAW_PBE Mo 08Apr2002                   :
  PAW_PBE S 17Jan2003                   :

 POSCAR: MoS2_mp-2815_computed
  positions in cartesian coordinates
  velocities in cartesian coordinates
 exchange correlation table for  LEXCH =        8
   RHO(1)=    0.500       N(1)  =     2000
   RHO(2)=  100.500       N(2)  =     4000

 ion  position               nearest neighbor table
   1  0.333  0.667  0.120-   3 2.42   2 2.42   2 2.42   3 2.42   3 2.42   2 2.42
   2  0.667  0.333  0.070-   1 2.42   1 2.42   1 2.42
   3  0.667  0.333  0.171-   1 2.42   1 2.42   1 2.42

  LATTYP: Found a hexagonal cell.
 ALAT       =     3.1903157300
 C/A-ratio  =     9.6789806757

  Lattice vectors:

 A1 = (   3.1903157300,   0.0000000000,   0.0000000000)
 A2 = (  -1.5951578650,   2.7628944683,   0.0000000000)
 A3 = (   0.0000000000,   0.0000000000,  30.8790043000)

Analysis of symmetry for initial positions (statically):
 Subroutine PRICEL returns:
 Original cell was already a primitive cell.

 Routine SETGRP: Setting up the symmetry group for a
 hexagonal supercell.

 Subroutine GETGRP returns: Found 12 space group operations
 (whereof  6 operations were pure point group operations)
 out of a pool of 24 trial point group operations.

The static configuration has the point symmetry C_3v.
 The point group associated with its full space group is D_3h.

Analysis of symmetry for dynamics (positions and initial velocities):
 Subroutine PRICEL returns:
 Original cell was already a primitive cell.

 Routine SETGRP: Setting up the symmetry group for a
 hexagonal supercell.

 Subroutine GETGRP returns: Found 12 space group operations
 (whereof  6 operations were pure point group operations)
 out of a pool of 24 trial point group operations.

The dynamic configuration has the point symmetry C_3v.
 The point group associated with its full space group is D_3h.

 Subroutine INISYM returns: Found 12 space group operations
 (whereof  6 operations are pure point group operations),
 and found     1 'primitive' translations

 KPOINTS: k-density: 8.0

Automatic generation of k-mesh.
Space group operators:
 irot       det(A)        alpha          n_x          n_y          n_z        tau_x        tau_y        tau_z
    1     1.000000     0.000000     1.000000     0.000000     0.000000     0.000000     0.000000     0.000000
    2     1.000000   120.000000     0.000000     0.000000    -1.000000     0.000000     0.000000     0.000000
    3     1.000000   120.000000     0.000000     0.000000     1.000000     0.000000     0.000000     0.000000
    4    -1.000000   180.000000     1.000000    -0.000000     0.000000     0.000000     0.000000     0.000000
    5    -1.000000   180.000000     0.500000    -0.866025     0.000000     0.000000     0.000000     0.000000
    6    -1.000000   180.000000    -0.500000    -0.866025     0.000000     0.000000     0.000000     0.000000
    7    -1.000000    60.000000     0.000000     0.000000    -1.000000     0.000000     0.000000     0.240924
    8    -1.000000   179.999999     0.000000     0.000000     1.000000     0.000000     0.000000     0.240924
    9    -1.000000    60.000000     0.000000     0.000000     1.000000     0.000000     0.000001     0.240924
   10     1.000000   180.000000     0.866025    -0.500000     0.000000     0.000000     0.000000     0.240924
   11     1.000000   180.000000     0.000000     1.000000     0.000000     0.000000     0.000000     0.240924
   12     1.000000   180.000000     0.866025     0.500000     0.000000    -0.000000     0.000001     0.240924

 Subroutine IBZKPT returns following result:

 Found     30 irreducible k-points:

 Following reciprocal coordinates:
            Coordinates               Weight
  0.000000  0.000000  0.000000      1.000000
  0.062500 -0.000000  0.000000      6.000000
  0.125000 -0.000000  0.000000      6.000000
  0.187500 -0.000000  0.000000      6.000000
  0.250000 -0.000000  0.000000      6.000000
  0.312500 -0.000000  0.000000      6.000000
  0.375000 -0.000000  0.000000      6.000000
  0.437500 -0.000000  0.000000      6.000000
  0.500000 -0.000000  0.000000      3.000000
  0.062500  0.062500  0.000000      6.000000
  0.125000  0.062500  0.000000     12.000000
  0.187500  0.062500  0.000000     12.000000
  0.250000  0.062500  0.000000     12.000000
  0.312500  0.062500  0.000000     12.000000
  0.375000  0.062500  0.000000     12.000000
  0.437500  0.062500  0.000000     12.000000
  0.125000  0.125000  0.000000      6.000000
  0.187500  0.125000  0.000000     12.000000
  0.250000  0.125000  0.000000     12.000000
  0.312500  0.125000  0.000000     12.000000
  0.375000  0.125000  0.000000     12.000000
  0.437500  0.125000  0.000000      6.000000
  0.187500  0.187500  0.000000      6.000000
  0.250000  0.187500  0.000000     12.000000
  0.312500  0.187500  0.000000     12.000000
  0.375000  0.187500  0.000000     12.000000
  0.250000  0.250000  0.000000      6.000000
  0.312500  0.250000  0.000000     12.000000
  0.375000  0.250000  0.000000      6.000000
  0.312500  0.312500  0.000000      6.000000

 Following cartesian coordinates:
            Coordinates               Weight
  0.000000  0.000000  0.000000      1.000000
  0.019591  0.011311  0.000000      6.000000
  0.039181  0.022621  0.000000      6.000000
  0.058772  0.033932  0.000000      6.000000
  0.078362  0.045242  0.000000      6.000000
  0.097953  0.056553  0.000000      6.000000
  0.117543  0.067864  0.000000      6.000000
  0.137134  0.079174  0.000000      6.000000
  0.156724  0.090485  0.000000      3.000000
  0.019591  0.033932  0.000000      6.000000
  0.039181  0.045242  0.000000     12.000000
  0.058772  0.056553  0.000000     12.000000
  0.078362  0.067864  0.000000     12.000000
  0.097953  0.079174  0.000000     12.000000
  0.117543  0.090485  0.000000     12.000000
  0.137134  0.101795  0.000000     12.000000
  0.039181  0.067864  0.000000      6.000000
  0.058772  0.079174  0.000000     12.000000
  0.078362  0.090485  0.000000     12.000000
  0.097953  0.101795  0.000000     12.000000
  0.117543  0.113106  0.000000     12.000000
  0.137134  0.124417  0.000000      6.000000
  0.058772  0.101795  0.000000      6.000000
  0.078362  0.113106  0.000000     12.000000
  0.097953  0.124417  0.000000     12.000000
  0.117543  0.135727  0.000000     12.000000
  0.078362  0.135727  0.000000      6.000000
  0.097953  0.147038  0.000000     12.000000
  0.117543  0.158348  0.000000      6.000000
  0.097953  0.169659  0.000000      6.000000

 TETIRR: Found    136 inequivalent tetrahedra from     1536

 SYSTEM =  unknown system
 POSCAR =  MoS2_mp-2815_computed

 Startparameter for this run:
   NWRITE =      2    write-flag & timer
   PREC   = normal    normal or accurate (medium, high low for compatibility)
   ISTART =      0    job   : 0-new  1-cont  2-samecut
   ICHARG =      2    charge: 1-file 2-atom 10-const
   ISPIN  =      1    spin polarized calculation?
   LNONCOLLINEAR =      F non collinear calculations
   LSORBIT =      F    spin-orbit coupling
   INIWAV =      1    electr: 0-lowe 1-rand  2-diag
   LASPH  =      F    aspherical Exc in radial PAW
   METAGGA=      F    non-selfconsistent MetaGGA calc.

 Electronic Relaxation 1
   ENCUT  =  450.0 eV  33.07 Ry    5.75 a.u.   5.52  5.52 53.41*2*pi/ulx,y,z
   ENINI  =  450.0     initial cutoff
   ENAUG  =  345.3 eV  augmentation charge cutoff
   NELM   =     60;   NELMIN=  4; NELMDL=  0     # of ELM steps
   EDIFF  = 0.1E-04   stopping-criterion for ELM
   LREAL  =      F    real-space projection
   NLSPLINE    = F    spline interpolate recip. space projectors
   LCOMPAT=      F    compatible to vasp.4.4
   GGA_COMPAT  = T    GGA compatible to vasp.4.4-vasp.4.6
   LMAXPAW     = -100 max onsite density
   LMAXMIX     =    2 max onsite mixed and CHGCAR
   VOSKOWN=      0    Vosko Wilk Nusair interpolation
   ROPT   =    0.00000   0.00000
 Ionic relaxation
   EDIFFG = 0.1E-03   stopping-criterion for IOM
   NSW    =      0    number of steps for IOM
   NBLOCK =      1;   KBLOCK =      1    inner block; outer block
   IBRION =     -1    ionic relax: 0-MD 1-quasi-New 2-CG
   NFREE  =      0    steps in history (QN), initial steepest desc. (CG)
   ISIF   =      2    stress and relaxation
   IWAVPR =     10    prediction:  0-non 1-charg 2-wave 3-comb
   ISYM   =      2    0-nonsym 1-usesym 2-fastsym
   LCORR  =      T    Harris-Foulkes like correction to forces

   POTIM  = 0.5000    time-step for ionic-motion
   TEIN   =    0.0    initial temperature
   TEBEG  =    0.0;   TEEND  =   0.0 temperature during run
   SMASS  =  -3.00    Nose mass-parameter (am)
   estimated Nose-frequenzy (Omega)   =  0.10E-29 period in steps =****** mass=  -0.233E-27a.u.
   SCALEE = 1.0000    scale energy and forces
   NPACO  =    256;   APACO  = 16.0  distance and # of slots for P.C.
   PSTRESS=    0.0 pullay stress

  Mass of Ions in am
   POMASS =  95.94 32.07
  Ionic Valenz
   ZVAL   =   6.00  6.00
  Atomic Wigner-Seitz radii
  virtual crystal weights
   VCA    =   1.00  1.00
   NELECT =      18.0000    total number of electrons
   NUPDOWN=      -1.0000    fix difference up-down

 DOS related values:
   EMIN   =  10.00;   EMAX   =-10.00  energy-range for DOS
   EFERMI =   0.00
   ISMEAR =    -5;   SIGMA  =   0.20  broadening in eV -4-tet -1-fermi 0-gaus

 Electronic relaxation 2 (details)
   IALGO  =     68    algorithm
   LDIAG  =      T    sub-space diagonalisation (order eigenvalues)
   LSUBROT=      F    optimize rotation matrix (better conditioning)
   TURBO    =      0    0=normal 1=particle mesh
   IRESTART =      0    0=no restart 2=restart with 2 vectors
   NREBOOT  =      0    no. of reboots
   NMIN     =      0    reboot dimension
   EREF     =   0.00    reference energy to select bands
   IMIX   =      4    mixing-type and parameters
     AMIX     =   0.40;   BMIX     =  1.00
     AMIX_MAG =   1.60;   BMIX_MAG =  1.00
     AMIN     =   0.10
     WC   =   100.;   INIMIX=   1;  MIXPRE=   1;  MAXMIX= -45

 Intra band minimization:
   WEIMIN = 0.0000     energy-eigenvalue tresh-hold
[...]

 Linear response parameters
   LEPSILON=     F    determine dielectric tensor
   LRPA    =     F    only Hartree local field effects (RPA)
   LNABLA  =     F    use nabla operator in PAW spheres
   LVEL    =     F    velocity operator in full k-point grid
   LINTERFAST=   F  fast interpolation
   KINTER  =     0    interpolate to denser k-point grid
   CSHIFT  =0.1000    complex shift for real part using Kramers Kronig
   OMEGAMAX=  -1.0    maximum frequency
   DEG_THRESHOLD= 0.2000000E-02 threshold for treating states as degnerate
   RTIME   =   -0.100 relaxation time in fs
  (WPLASMAI=    0.000 imaginary part of plasma frequency in eV, 0.658/RTIME)
   DFIELD  = 0.0000000 0.0000000 0.0000000 field for delta impulse in time

 Orbital magnetization related:
   ORBITALMAG=     F  switch on orbital magnetization
   LCHIMAG   =     F  perturbation theory with respect to B field
   DQ        =  0.001000  dq finite difference perturbation B field
   LLRAUG    =     F  two centre corrections for induced B field

 Static calculation
 charge density and potential will be updated during run
 non-spin polarized calculation
 RMM-DIIS sequential band-by-band and
  variant of blocked Davidson during initial phase
 perform sub-space diagonalisation
    before iterative eigenvector-optimisation
 modified Broyden-mixing scheme, WC =      100.0
 initial mixing is a Kerker type mixing with AMIX =  0.4000 and BMIX =      1.0000
 Hartree-type preconditioning will be used
 using additional bands            5
 reciprocal scheme for non local part
 use partial core corrections
 calculate Harris-corrections to forces
   (improved forces if not selfconsistent)
 use gradient corrections
 use of overlap-Matrix (Vanderbilt PP)
 Fermi weights with tetrahedron method with Bloechl corrections

  energy-cutoff  :      450.00
  volume of cell :      272.18
      direct lattice vectors                 reciprocal lattice vectors
     3.190315730  0.000000000  0.000000000     0.313448600  0.180969634  0.000000000
    -1.595157865  2.762894468  0.000000000     0.000000000  0.361939267  0.000000000
     0.000000000  0.000000000 30.879004300     0.000000000  0.000000000  0.032384464

  length of vectors
     3.190315730  3.190315730 30.879004300     0.361939267  0.361939267  0.032384464

 k-points in units of 2pi/SCALE and weight: k-density: 8.0
   0.00000000  0.00000000  0.00000000       0.004
   0.01959054  0.01131060  0.00000000       0.023
   0.03918108  0.02262120  0.00000000       0.023
   0.05877161  0.03393181  0.00000000       0.023
   0.07836215  0.04524241  0.00000000       0.023
   0.09795269  0.05655301  0.00000000       0.023
   0.11754323  0.06786361  0.00000000       0.023
   0.13713376  0.07917421  0.00000000       0.023
   0.15672430  0.09048482  0.00000000       0.012
   0.01959054  0.03393181  0.00000000       0.023
   0.03918108  0.04524241  0.00000000       0.047
   0.05877161  0.05655301  0.00000000       0.047
   0.07836215  0.06786361  0.00000000       0.047
   0.09795269  0.07917421  0.00000000       0.047
   0.11754323  0.09048482  0.00000000       0.047
   0.13713376  0.10179542  0.00000000       0.047
   0.03918108  0.06786361  0.00000000       0.023
   0.05877161  0.07917421  0.00000000       0.047
   0.07836215  0.09048482  0.00000000       0.047
   0.09795269  0.10179542  0.00000000       0.047
   0.11754323  0.11310602  0.00000000       0.047
   0.13713376  0.12441662  0.00000000       0.023
   0.05877161  0.10179542  0.00000000       0.023
   0.07836215  0.11310602  0.00000000       0.047
   0.09795269  0.12441662  0.00000000       0.047
   0.11754323  0.13572723  0.00000000       0.047
   0.07836215  0.13572723  0.00000000       0.023
   0.09795269  0.14703783  0.00000000       0.047
   0.11754323  0.15834843  0.00000000       0.023
   0.09795269  0.16965903  0.00000000       0.023

 k-points in reciprocal lattice and weights: k-density: 8.0
   0.00000000  0.00000000  0.00000000       0.004
   0.06250000 -0.00000000  0.00000000       0.023
   0.12500000 -0.00000000  0.00000000       0.023
   0.18750000 -0.00000000  0.00000000       0.023
   0.25000000 -0.00000000  0.00000000       0.023
   0.31250000 -0.00000000  0.00000000       0.023
   0.37500000 -0.00000000  0.00000000       0.023
   0.43750000 -0.00000000  0.00000000       0.023
   0.50000000 -0.00000000  0.00000000       0.012
   0.06250000  0.06250000  0.00000000       0.023
   0.12500000  0.06250000  0.00000000       0.047
   0.18750000  0.06250000  0.00000000       0.047
   0.25000000  0.06250000  0.00000000       0.047
   0.31250000  0.06250000  0.00000000       0.047
   0.37500000  0.06250000  0.00000000       0.047
   0.43750000  0.06250000  0.00000000       0.047
   0.12500000  0.12500000  0.00000000       0.023
   0.18750000  0.12500000  0.00000000       0.047
   0.25000000  0.12500000  0.00000000       0.047
   0.31250000  0.12500000  0.00000000       0.047
   0.37500000  0.12500000  0.00000000       0.047
   0.43750000  0.12500000  0.00000000       0.023
   0.18750000  0.18750000  0.00000000       0.023
   0.25000000  0.18750000  0.00000000       0.047
   0.31250000  0.18750000  0.00000000       0.047
   0.37500000  0.18750000  0.00000000       0.047
   0.25000000  0.25000000  0.00000000       0.023
   0.31250000  0.25000000  0.00000000       0.047
   0.37500000  0.25000000  0.00000000       0.023
   0.31250000  0.31250000  0.00000000       0.023

 position of ions in fractional coordinates (direct lattice)
   0.33333300  0.66666700  0.12046214
   0.66666700  0.33333300  0.06978420
   0.66666600  0.33333300  0.17114009

 position of ions in cartesian coordinates  (Angst):
  -0.00000160  1.84193057  3.71975108
   1.59515946  0.92096390  2.15486668
   1.59515627  0.92096390  5.28463547

 k-point  1 :   0.0000 0.0000 0.0000  plane waves:    6011
 k-point  2 :   0.0625-0.0000 0.0000  plane waves:    6005
 k-point  3 :   0.1250-0.0000 0.0000  plane waves:    5991
 k-point  4 :   0.1875-0.0000 0.0000  plane waves:    5947
 k-point  5 :   0.2500-0.0000 0.0000  plane waves:    5920
 k-point  6 :   0.3125-0.0000 0.0000  plane waves:    5888
 k-point  7 :   0.3750-0.0000 0.0000  plane waves:    5888
 k-point  8 :   0.4375-0.0000 0.0000  plane waves:    5854
 k-point  9 :   0.5000-0.0000 0.0000  plane waves:    5816
 k-point 10 :   0.0625 0.0625 0.0000  plane waves:    5983
 k-point 11 :   0.1250 0.0625 0.0000  plane waves:    5969
 k-point 12 :   0.1875 0.0625 0.0000  plane waves:    5925
 k-point 13 :   0.2500 0.0625 0.0000  plane waves:    5913
 k-point 14 :   0.3125 0.0625 0.0000  plane waves:    5901
 k-point 15 :   0.3750 0.0625 0.0000  plane waves:    5862
 k-point 16 :   0.4375 0.0625 0.0000  plane waves:    5832
 k-point 17 :   0.1250 0.1250 0.0000  plane waves:    5923
 k-point 18 :   0.1875 0.1250 0.0000  plane waves:    5911
 k-point 19 :   0.2500 0.1250 0.0000  plane waves:    5911
 k-point 20 :   0.3125 0.1250 0.0000  plane waves:    5883
 k-point 21 :   0.3750 0.1250 0.0000  plane waves:    5862
 k-point 22 :   0.4375 0.1250 0.0000  plane waves:    5842
 k-point 23 :   0.1875 0.1875 0.0000  plane waves:    5899
 k-point 24 :   0.2500 0.1875 0.0000  plane waves:    5907
 k-point 25 :   0.3125 0.1875 0.0000  plane waves:    5888
 k-point 26 :   0.3750 0.1875 0.0000  plane waves:    5877
 k-point 27 :   0.2500 0.2500 0.0000  plane waves:    5894
 k-point 28 :   0.3125 0.2500 0.0000  plane waves:    5896
 k-point 29 :   0.3750 0.2500 0.0000  plane waves:    5880
 k-point 30 :   0.3125 0.3125 0.0000  plane waves:    5890

 maximum and minimum number of plane-waves per node :      3017     2897

 maximum number of plane-waves:      6011
 maximum index in each direction:
   IXMAX=    5   IYMAX=    5   IZMAX=   53
   IXMIN=   -6   IYMIN=   -5   IZMIN=  -53

 parallel 3D FFT for wavefunctions:
    minimum data exchange during FFTs selected (reduces bandwidth)
 parallel 3D FFT for charge:
    minimum data exchange during FFTs selected (reduces bandwidth)

 Broyden mixing: mesh for mixing (old mesh)
   NGX = 11   NGY = 11   NGZ =107
  (NGX  = 36   NGY  = 36   NGZ  =320)
  gives a total of  12947 points

 initial charge density was supplied:
 charge density of overlapping atoms calculated
 number of electron      18.0000000 magnetization
 keeping initial charge density in first step

 Maximum index for augmentation-charges         2904 (set IRDMAX)

 First call to EWALD:  gamma=   0.273
 Maximum number of real-space cells 6x 6x 1
 Maximum number of reciprocal cells 2x 2x11

--------------------------------------- Iteration      1(   1)  ---------------------------------------

 BZINTS: Fermi energy:  6.445976; 18.000000 electrons
         Band energy: -13.411831;  BLOECHL correction: -0.140854

 eigenvalue-minimisations  :   840
 total energy-change (2. order) : 0.1363170E+03  (-0.5268689E+03)
 number of electron      18.0000000 magnetization
 augmentation part       18.0000000 magnetization

 Free energy of the ion-electron system (eV)
  alpha Z        PSCENC =        10.89288288
  Ewald energy   TEWEN  =      5368.65661653
  -Hartree energ DENC   =     -6042.21104469
  -exchange      EXHF   =         0.00000000
  -V(xc)+E(xc)   XCENC  =       -36.31053806
  PAW double counting   =       406.88651198     -329.34073203
  entropy T*S    EENTRO =         0.00000000
  eigenvalues    EBANDS =       -13.41183144
  atomic energy  EATOM  =       771.15511399
  Solvation  Ediel_sol  =         0.00000000
  free energy    TOTEN  =       136.31697916 eV

  energy without entropy =      136.31697916  energy(sigma->0) =      136.31697916

[...]

 BZINTS: Fermi energy: -2.412289; 18.000000 electrons
         Band energy:-155.670941;  BLOECHL correction:  0.000000

 eigenvalue-minimisations  :  1454
 total energy-change (2. order) :-0.1422591E+03  (-0.1337583E+03)
 number of electron      18.0000000 magnetization
 augmentation part       18.0000000 magnetization

[...]

 Broyden mixing:
  rms(total) = 0.68867E+00    rms(broyden)= 0.68866E+00
  rms(prec ) = 0.73247E+00
  weight for this iteration     100.00

[...]

 eigenvalues of (default mixing * dielectric matrix)
  average eigenvalue GAMMA=   0.8337
  0.8337

[...]

 eigenvalue-minimisations  :   914
 total energy-change (2. order) : 0.1652490E-03  (-0.5168627E-04)
 number of electron      18.0000016 magnetization
 augmentation part       -0.5504941 magnetization

[...]

 Broyden mixing:
  rms(total) = 0.11543E-03    rms(broyden)= 0.11543E-03
  rms(prec ) = 0.13167E-03
  weight for this iteration     100.00

 eigenvalues of (default mixing * dielectric matrix)
  average eigenvalue GAMMA=   2.2942
  7.7019  4.7366  2.9201  2.4785  2.1410  1.4724  1.4724  0.6684  1.0406  1.0406
  0.9288  0.9288

[...]

--------------------------------------- Iteration      1(  18)  ---------------------------------------

[...]

 eigenvalue-minimisations  :   249
 total energy-change (2. order) :-0.4391013E-05  (-0.4075774E-07)
 number of electron      18.0000016 magnetization
 augmentation part       -0.5500075 magnetization

 Free energy of the ion-electron system (eV)
  alpha Z        PSCENC =        10.89288288
  Ewald energy   TEWEN  =      5368.65661653
  -Hartree energ DENC   =     -6055.62750653
  -exchange      EXHF   =         0.00000000
  -V(xc)+E(xc)   XCENC  =       -35.20092942
  PAW double counting   =       472.18472928     -396.37552106
  entropy T*S    EENTRO =         0.00000000
  eigenvalues    EBANDS =      -157.48217904
  atomic energy  EATOM  =       771.15511399
  Solvation  Ediel_sol  =         0.00000000
  free energy    TOTEN  =       -21.79679336 eV

  energy without entropy =      -21.79679336  energy(sigma->0) =      -21.79679336

 average (electrostatic) potential at core
  the test charge radii are     1.2296  0.9698
  (the norm of the test charge is              1.0000)
       1 -47.2002       2 -95.0391       3 -95.0391

 E-fermi :  -3.7329     XC(G=0):  -2.5026     alpha+bet : -2.3217

 k-point     1 :       0.0000    0.0000    0.0000
  band No.  band energies     occupation
      1     -17.7883      2.00000
      2     -16.5803      2.00000
      3      -9.3088      2.00000
      4      -6.3479      2.00000
      5      -6.3479      2.00000
      6      -5.4867      2.00000
      7      -5.2423      2.00000
      8      -5.2422      2.00000
      9      -3.7664      2.00000
     10      -0.9948      0.00000
     11      -0.9948      0.00000
     12      -0.7711      0.00000
     13      -0.7711      0.00000
     14       1.6640      0.00000

[...]

 k-point    30 :       0.3125    0.3125    0.0000
  band No.  band energies     occupation
      1     -15.7668      2.00000
      2     -15.6005      2.00000
      3      -9.0689      2.00000
      4      -8.4139      2.00000
      5      -7.6642      2.00000
      6      -7.2712      2.00000
      7      -6.6626      2.00000
      8      -5.8487      2.00000
      9      -3.8152      2.00000
     10      -2.0550      0.00000
     11      -0.7137      0.00000
     12      -0.3352      0.00000
     13       1.0240      0.00000
     14       3.4319      0.00000

 soft charge-density along one line, spin component           1
         0         1         2         3         4         5         6         7         8         9
 total charge-density along one line

------------------------ aborting loop because EDIFF is reached ----------------------------------------

  DFT-D2 method for vdW energy calculation

  Parameters of vdW forcefield:
         C6(Jnm^6/mol)     R0(A)
   Mo      24.670          1.639
   S        5.570          1.683

  IVDW =   1
  VDW_RADIUS =    50.000 A
  VDW_S6 =     0.750
  VDW_SR =     1.000
  VDW_D =    20.000
  LVDW_EWALD = F

  Number of pair interactions contributing to vdW energy:   11979
  Edisp (eV):   -0.59080

  FORCE on cell =-STRESS in cart. coord.  units (eV):
  Direction    XX          YY          ZZ          XY          YZ          ZX
  Alpha Z    10.89288    10.89288    10.89288
  Ewald    5935.52296  5935.52341 -6502.38985     0.00019     0.00000     0.00012
  Hartree  6017.36866  6017.36866 -5979.09712     0.00002    -0.00000    -0.00000
  E(xc)     -70.29681   -70.29682   -70.90173    -0.00000    -0.00000    -0.00000
  Local  -12231.98821-12231.98854 12196.42615    -0.00021    -0.00000    -0.00006
  n-local   127.23729   125.70965   131.68278    -0.26431    -0.00000    -0.00001
  augment   -25.56620   -25.56613   -26.66779     0.00007     0.00000    -0.00000
  Kinetic   236.12110   238.45884   239.80574    -7.52596     0.00001     0.00002
  Fock        0.00000     0.00000     0.00000     0.00000     0.00000     0.00000
  vdW         0.16052     0.16052    -0.13380     0.00000     0.00000    -0.00000
  Total      -0.14267    -0.14267    -0.38275     0.00000     0.00000     0.00000
  in kB      -0.83979    -0.83979    -2.25302     0.00000     0.00000     0.00000

 VOLUME and BASIS-vectors are now :
  energy-cutoff  :      450.00
  volume of cell :      272.18
      direct lattice vectors                 reciprocal lattice vectors
     3.190315730  0.000000000  0.000000000     0.313448600  0.180969634  0.000000000
    -1.595157865  2.762894468  0.000000000     0.000000000  0.361939267  0.000000000
     0.000000000  0.000000000 30.879004300     0.000000000  0.000000000  0.032384464

  length of vectors
     3.190315730  3.190315730 30.879004300     0.361939267  0.361939267  0.032384464

 FORCES acting on ions
    electron-ion (+dipol)            ewald-force                    non-local-force                 convergence-correction
   -.953E-05 -.170E-05 -.105E-04   0.931E-04 -.108E-03 0.343E-06   -.208E-16 0.000E+00 -.508E-20   0.416E-09 -.369E-09 0.855E-07
   -.853E-03 0.494E-03 0.596E+03   -.864E-04 0.538E-04 -.601E+03   0.252E-16 -.347E-17 0.480E+01   -.711E-08 0.322E-08 0.233E-02
   0.864E-03 0.494E-03 -.596E+03   -.674E-05 0.538E-04 0.601E+03   0.191E-16 -.694E-17 -.480E+01   0.807E-08 0.322E-08 -.233E-02
   0.207E-05 0.986E-03 0.208E-04   0.253E-13 0.199E-13 0.000E+00   0.234E-16 -.104E-16 0.000E+00   0.138E-08 0.607E-08 0.224E-06

 POSITION                                       TOTAL-FORCE (eV/Angst)
     -0.00000      1.84193      3.71975        -0.000000      0.000000      0.000000
      1.59516      0.92096      2.15487         0.000000     -0.000000      0.116082
      1.59516      0.92096      5.28464         0.000000     -0.000000     -0.116082
    total drift:                                0.000002      0.000986      0.000021

  FREE ENERGIE OF THE ION-ELECTRON SYSTEM (eV)
  free  energy   TOTEN  =       -22.38759158 eV

  energy  without entropy=      -22.38759158  energy(sigma->0) =      -22.38759158

 BZINTS: Fermi energy: -3.732885; 18.000000 electrons
         Band energy:-157.482179;  BLOECHL correction:  0.000000