 vasp.5.4.4.18Apr17-6-g9f103f2a35 (build Jun 30 2017 11:15:00) complex

 executed on    STALLO_VASP_5.4.4 date 2019.11.08  12:22:18

 INCAR:
 POTCAR:   PAW_PBE Mo 08Apr2002
 POTCAR:    PAW_PBE S 17Jan2003
 POTCAR:   PAW_PBE Mo 08Apr2002
   VRHFIN =Mo: 4p5s4d

   TITEL  = PAW_PBE Mo 08Apr2002
   POMASS =   95.940; ZVAL   =    6.000    mass and valenz
   ENMAX  =  224.584; ENMIN  =  168.438 eV
   QCUT   =   -4.063; QGAM   =    8.126    optimization parameters

   Description
     l     E      TYP  RCUT    TYP  RCUT
     2   .000     23  2.500
     2   .000     23  2.500
     0   .000     23  2.600
     0  1.000     23  2.600
     1   .400     23  2.750
     1  2.000     23  2.750
     3   .000      7   .000

 POTCAR:    PAW_PBE S 17Jan2003
   VRHFIN =S : s2p4

   TITEL  = PAW_PBE S 17Jan2003
   POMASS =   32.066; ZVAL   =    6.000    mass and valenz
   ENMAX  =  280.000; ENMIN  =  194.016 eV
   QCUT   =   -4.360; QGAM   =    8.721    optimization parameters

   Description
     l     E      TYP  RCUT    TYP  RCUT
     0   .000     23  1.900
     0   .000     23  1.900
     1   .000     23  1.900
     1   .000     23  1.900
     2   .000     23  1.900

 PAW_PBE Mo 08Apr2002                   :
  PAW_PBE S 17Jan2003                   :

 POSCAR: MoS2_mp-2815_computed
  positions in cartesian coordinates
  velocities in cartesian coordinates
 exchange correlation table for  LEXCH =        8
   RHO(1)=    0.500       N(1)  =     2000
   RHO(2)=  100.500       N(2)  =     4000

 ion  position               nearest neighbor table
   1  0.333  0.667  0.120-   3 2.42   2 2.42   2 2.42   3 2.42   3 2.42   2 2.42
   2  0.667  0.333  0.070-   1 2.42   1 2.42   1 2.42
   3  0.667  0.333  0.171-   1 2.42   1 2.42   1 2.42

  LATTYP: Found a hexagonal cell.
 ALAT       =     3.1903157300
 C/A-ratio  =     9.6789806757

  Lattice vectors:

 A1 = (   3.1903157300,   0.0000000000,   0.0000000000)
 A2 = (  -1.5951578650,   2.7628944683,   0.0000000000)
 A3 = (   0.0000000000,   0.0000000000,  30.8790043000)

Analysis of symmetry for initial positions (statically):
 Subroutine PRICEL returns:
 Original cell was already a primitive cell.

 Routine SETGRP: Setting up the symmetry group for a
 hexagonal supercell.

 Subroutine GETGRP returns: Found 12 space group operations
 (whereof  6 operations were pure point group operations)
 out of a pool of 24 trial point group operations.

The static configuration has the point symmetry C_3v.
 The point group associated with its full space group is D_3h.

Analysis of symmetry for dynamics (positions and initial velocities):
 Subroutine PRICEL returns:
 Original cell was already a primitive cell.

 Routine SETGRP: Setting up the symmetry group for a
 hexagonal supercell.

 Subroutine GETGRP returns: Found 12 space group operations
 (whereof  6 operations were pure point group operations)
 out of a pool of 24 trial point group operations.

The dynamic configuration has the point symmetry C_3v.
 The point group associated with its full space group is D_3h.

 Subroutine INISYM returns: Found 12 space group operations
 (whereof  6 operations are pure point group operations),
 and found     1 'primitive' translations

 KPOINTS: k-density: 9.0

Automatic generation of k-mesh.
Space group operators:
 irot       det(A)        alpha          n_x          n_y          n_z        tau_x        tau_y        tau_z
    1     1.000000     0.000000     1.000000     0.000000     0.000000     0.000000     0.000000     0.000000
    2     1.000000   120.000000     0.000000     0.000000    -1.000000     0.000000     0.000000     0.000000
    3     1.000000   120.000000     0.000000     0.000000     1.000000     0.000000     0.000000     0.000000
    4    -1.000000   180.000000     1.000000    -0.000000     0.000000     0.000000     0.000000     0.000000
    5    -1.000000   180.000000     0.500000    -0.866025     0.000000     0.000000     0.000000     0.000000
    6    -1.000000   180.000000    -0.500000    -0.866025     0.000000     0.000000     0.000000     0.000000
    7    -1.000000    60.000000     0.000000     0.000000    -1.000000     0.000000     0.000000     0.240924
    8    -1.000000   179.999999     0.000000     0.000000     1.000000     0.000000     0.000000     0.240924
    9    -1.000000    60.000000     0.000000     0.000000     1.000000     0.000000     0.000001     0.240924
   10     1.000000   180.000000     0.866025    -0.500000     0.000000     0.000000     0.000000     0.240924
   11     1.000000   180.000000     0.000000     1.000000     0.000000     0.000000     0.000000     0.240924
   12     1.000000   180.000000     0.866025     0.500000     0.000000    -0.000000     0.000001     0.240924

 Subroutine IBZKPT returns following result:

 Found     37 irreducible k-points:

 Following reciprocal coordinates:
            Coordinates               Weight
  0.000000  0.000000  0.000000      1.000000
  0.055556 -0.000000  0.000000      6.000000
  0.111111 -0.000000  0.000000      6.000000
  0.166667 -0.000000  0.000000      6.000000
  0.222222 -0.000000  0.000000      6.000000
  0.277778 -0.000000  0.000000      6.000000
  0.333333 -0.000000  0.000000      6.000000
  0.388889 -0.000000  0.000000      6.000000
  0.444444 -0.000000  0.000000      6.000000
  0.500000 -0.000000  0.000000      3.000000
  0.055556  0.055556  0.000000      6.000000
  0.111111  0.055556  0.000000     12.000000
  0.166667  0.055556  0.000000     12.000000
  0.222222  0.055556  0.000000     12.000000
  0.277778  0.055556  0.000000     12.000000
  0.333333  0.055556  0.000000     12.000000
  0.388889  0.055556  0.000000     12.000000
  0.444444  0.055556  0.000000     12.000000
  0.111111  0.111111  0.000000      6.000000
  0.166667  0.111111  0.000000     12.000000
  0.222222  0.111111  0.000000     12.000000
  0.277778  0.111111  0.000000     12.000000
  0.333333  0.111111  0.000000     12.000000
  0.388889  0.111111  0.000000     12.000000
  0.444444  0.111111  0.000000      6.000000
  0.166667  0.166667  0.000000      6.000000
  0.222222  0.166667  0.000000     12.000000
  0.277778  0.166667  0.000000     12.000000
  0.333333  0.166667  0.000000     12.000000
  0.388889  0.166667  0.000000     12.000000
  0.222222  0.222222  0.000000      6.000000
  0.277778  0.222222  0.000000     12.000000
  0.333333  0.222222  0.000000     12.000000
  0.388889  0.222222  0.000000      6.000000
  0.277778  0.277778  0.000000      6.000000
  0.333333  0.277778  0.000000     12.000000
  0.333333  0.333333  0.000000      2.000000

 Following cartesian coordinates:
            Coordinates               Weight
  0.000000  0.000000  0.000000      1.000000
  0.017414  0.010054  0.000000      6.000000
  0.034828  0.020108  0.000000      6.000000
  0.052241  0.030162  0.000000      6.000000
  0.069655  0.040215  0.000000      6.000000
  0.087069  0.050269  0.000000      6.000000
  0.104483  0.060323  0.000000      6.000000
  0.121897  0.070377  0.000000      6.000000
  0.139310  0.080431  0.000000      6.000000
  0.156724  0.090485  0.000000      3.000000
  0.017414  0.030162  0.000000      6.000000
  0.034828  0.040215  0.000000     12.000000
  0.052241  0.050269  0.000000     12.000000
  0.069655  0.060323  0.000000     12.000000
  0.087069  0.070377  0.000000     12.000000
  0.104483  0.080431  0.000000     12.000000
  0.121897  0.090485  0.000000     12.000000
  0.139310  0.100539  0.000000     12.000000
  0.034828  0.060323  0.000000      6.000000
  0.052241  0.070377  0.000000     12.000000
  0.069655  0.080431  0.000000     12.000000
  0.087069  0.090485  0.000000     12.000000
  0.104483  0.100539  0.000000     12.000000
  0.121897  0.110593  0.000000     12.000000
  0.139310  0.120646  0.000000      6.000000
  0.052241  0.090485  0.000000      6.000000
  0.069655  0.100539  0.000000     12.000000
  0.087069  0.110593  0.000000     12.000000
  0.104483  0.120646  0.000000     12.000000
  0.121897  0.130700  0.000000     12.000000
  0.069655  0.120646  0.000000      6.000000
  0.087069  0.130700  0.000000     12.000000
  0.104483  0.140754  0.000000     12.000000
  0.121897  0.150808  0.000000      6.000000
  0.087069  0.150808  0.000000      6.000000
  0.104483  0.160862  0.000000     12.000000
  0.104483  0.180970  0.000000      2.000000

 TETIRR: Found    169 inequivalent tetrahedra from     1944

 SYSTEM =  unknown system
 POSCAR =  MoS2_mp-2815_computed

 Startparameter for this run:
   NWRITE =      2    write-flag & timer
   PREC   = normal    normal or accurate (medium, high low for compatibility)
   ISTART =      0    job   : 0-new  1-cont  2-samecut
   ICHARG =      2    charge: 1-file 2-atom 10-const
   ISPIN  =      1    spin polarized calculation?
   LNONCOLLINEAR =      F non collinear calculations
   LSORBIT =      F    spin-orbit coupling
   INIWAV =      1    electr: 0-lowe 1-rand  2-diag
   LASPH  =      F    aspherical Exc in radial PAW
   METAGGA=      F    non-selfconsistent MetaGGA calc.

 Electronic Relaxation 1
   ENCUT  =  450.0 eV  33.07 Ry    5.75 a.u.   5.52  5.52 53.41*2*pi/ulx,y,z
   ENINI  =  450.0     initial cutoff
   ENAUG  =  345.3 eV  augmentation charge cutoff
   NELM   =     60;   NELMIN=  4; NELMDL=  0     # of ELM steps
   EDIFF  = 0.1E-04   stopping-criterion for ELM
   LREAL  =      F    real-space projection
   NLSPLINE    = F    spline interpolate recip. space projectors
   LCOMPAT=      F    compatible to vasp.4.4
   GGA_COMPAT  = T    GGA compatible to vasp.4.4-vasp.4.6
   LMAXPAW     = -100 max onsite density
   LMAXMIX     =    2 max onsite mixed and CHGCAR
   VOSKOWN=      0    Vosko Wilk Nusair interpolation
   ROPT   =    0.00000   0.00000
 Ionic relaxation
   EDIFFG = 0.1E-03   stopping-criterion for IOM
   NSW    =      0    number of steps for IOM
   NBLOCK =      1;   KBLOCK =      1    inner block; outer block
   IBRION =     -1    ionic relax: 0-MD 1-quasi-New 2-CG
   NFREE  =      0    steps in history (QN), initial steepest desc. (CG)
   ISIF   =      2    stress and relaxation
   IWAVPR =     10    prediction:  0-non 1-charg 2-wave 3-comb
   ISYM   =      2    0-nonsym 1-usesym 2-fastsym
   LCORR  =      T    Harris-Foulkes like correction to forces

   POTIM  = 0.5000    time-step for ionic-motion
   TEIN   =    0.0    initial temperature
   TEBEG  =    0.0;   TEEND  =   0.0 temperature during run
   SMASS  =  -3.00    Nose mass-parameter (am)
   estimated Nose-frequenzy (Omega)   =  0.10E-29 period in steps =****** mass=  -0.233E-27a.u.
   SCALEE = 1.0000    scale energy and forces
   NPACO  =    256;   APACO  = 16.0  distance and # of slots for P.C.
   PSTRESS=    0.0 pullay stress

  Mass of Ions in am
   POMASS =  95.94 32.07
  Ionic Valenz
   ZVAL   =   6.00  6.00
  Atomic Wigner-Seitz radii
  virtual crystal weights
   VCA    =   1.00  1.00
   NELECT =      18.0000    total number of electrons
   NUPDOWN=      -1.0000    fix difference up-down

 DOS related values:
   EMIN   =  10.00;   EMAX   =-10.00  energy-range for DOS
   EFERMI =   0.00
   ISMEAR =    -5;   SIGMA  =   0.20  broadening in eV -4-tet -1-fermi 0-gaus

 Electronic relaxation 2 (details)
   IALGO  =     68    algorithm
[...]
 non-spin polarized calculation
 RMM-DIIS sequential band-by-band and
  variant of blocked Davidson during initial phase
 perform sub-space diagonalisation
    before iterative eigenvector-optimisation
 modified Broyden-mixing scheme, WC =      100.0
 initial mixing is a Kerker type mixing with AMIX =  0.4000 and BMIX =      1.0000
 Hartree-type preconditioning will be used
 using additional bands            5
 reciprocal scheme for non local part
 use partial core corrections
 calculate Harris-corrections to forces
   (improved forces if not selfconsistent)
 use gradient corrections
 use of overlap-Matrix (Vanderbilt PP)
 Fermi weights with tetrahedron method with Bloechl corrections

  energy-cutoff  :      450.00
  volume of cell :      272.18
      direct lattice vectors                 reciprocal lattice vectors
     3.190315730  0.000000000  0.000000000     0.313448600  0.180969634  0.000000000
    -1.595157865  2.762894468  0.000000000     0.000000000  0.361939267  0.000000000
     0.000000000  0.000000000 30.879004300     0.000000000  0.000000000  0.032384464

  length of vectors
     3.190315730  3.190315730 30.879004300     0.361939267  0.361939267  0.032384464

 k-points in units of 2pi/SCALE and weight: k-density: 9.0
   0.00000000  0.00000000  0.00000000       0.003
   0.01741381  0.01005387  0.00000000       0.019
   0.03482762  0.02010774  0.00000000       0.019
   0.05224143  0.03016161  0.00000000       0.019
   0.06965524  0.04021547  0.00000000       0.019
   0.08706906  0.05026934  0.00000000       0.019
   0.10448287  0.06032321  0.00000000       0.019
   0.12189668  0.07037708  0.00000000       0.019
   0.13931049  0.08043095  0.00000000       0.019
   0.15672430  0.09048482  0.00000000       0.009
   0.01741381  0.03016161  0.00000000       0.019
   0.03482762  0.04021547  0.00000000       0.037
   0.05224143  0.05026934  0.00000000       0.037
   0.06965524  0.06032321  0.00000000       0.037
   0.08706906  0.07037708  0.00000000       0.037
   0.10448287  0.08043095  0.00000000       0.037
   0.12189668  0.09048482  0.00000000       0.037
   0.13931049  0.10053869  0.00000000       0.037
   0.03482762  0.06032321  0.00000000       0.019
   0.05224143  0.07037708  0.00000000       0.037
   0.06965524  0.08043095  0.00000000       0.037
   0.08706906  0.09048482  0.00000000       0.037
   0.10448287  0.10053869  0.00000000       0.037
   0.12189668  0.11059255  0.00000000       0.037
   0.13931049  0.12064642  0.00000000       0.019
   0.05224143  0.09048482  0.00000000       0.019
   0.06965524  0.10053869  0.00000000       0.037
   0.08706906  0.11059255  0.00000000       0.037
   0.10448287  0.12064642  0.00000000       0.037
   0.12189668  0.13070029  0.00000000       0.037
   0.06965524  0.12064642  0.00000000       0.019
   0.08706906  0.13070029  0.00000000       0.037
   0.10448287  0.14075416  0.00000000       0.037
   0.12189668  0.15080803  0.00000000       0.019
   0.08706906  0.15080803  0.00000000       0.019
   0.10448287  0.16086190  0.00000000       0.037
   0.10448287  0.18096963  0.00000000       0.006

 k-points in reciprocal lattice and weights: k-density: 9.0
   0.00000000  0.00000000  0.00000000       0.003
   0.05555556 -0.00000000  0.00000000       0.019
   0.11111111 -0.00000000  0.00000000       0.019
   0.16666667 -0.00000000  0.00000000       0.019
   0.22222222 -0.00000000  0.00000000       0.019
   0.27777778 -0.00000000  0.00000000       0.019
   0.33333333 -0.00000000  0.00000000       0.019
   0.38888889 -0.00000000  0.00000000       0.019
   0.44444444 -0.00000000  0.00000000       0.019
   0.50000000 -0.00000000  0.00000000       0.009
   0.05555556  0.05555556  0.00000000       0.019
   0.11111111  0.05555556  0.00000000       0.037
   0.16666667  0.05555556  0.00000000       0.037
   0.22222222  0.05555556  0.00000000       0.037
   0.27777778  0.05555556  0.00000000       0.037
   0.33333333  0.05555556  0.00000000       0.037
   0.38888889  0.05555556  0.00000000       0.037
   0.44444444  0.05555556  0.00000000       0.037
   0.11111111  0.11111111  0.00000000       0.019
   0.16666667  0.11111111  0.00000000       0.037
   0.22222222  0.11111111  0.00000000       0.037
   0.27777778  0.11111111  0.00000000       0.037
   0.33333333  0.11111111  0.00000000       0.037
   0.38888889  0.11111111  0.00000000       0.037
   0.44444444  0.11111111  0.00000000       0.019
   0.16666667  0.16666667  0.00000000       0.019
   0.22222222  0.16666667  0.00000000       0.037
   0.27777778  0.16666667  0.00000000       0.037
   0.33333333  0.16666667  0.00000000       0.037
   0.38888889  0.16666667  0.00000000       0.037
   0.22222222  0.22222222  0.00000000       0.019
   0.27777778  0.22222222  0.00000000       0.037
   0.33333333  0.22222222  0.00000000       0.037
   0.38888889  0.22222222  0.00000000       0.019
   0.27777778  0.27777778  0.00000000       0.019
   0.33333333  0.27777778  0.00000000       0.037
   0.33333333  0.33333333  0.00000000       0.006

 position of ions in fractional coordinates (direct lattice)
   0.33333300  0.66666700  0.12046214
   0.66666700  0.33333300  0.06978420
   0.66666600  0.33333300  0.17114009

 position of ions in cartesian coordinates  (Angst):
  -0.00000160  1.84193057  3.71975108
   1.59515946  0.92096390  2.15486668
   1.59515627  0.92096390  5.28463547

 k-point  1 :   0.0000 0.0000 0.0000  plane waves:    6011
 k-point  2 :   0.0556-0.0000 0.0000  plane waves:    5997
 k-point  3 :   0.1111-0.0000 0.0000  plane waves:    6001
 k-point  4 :   0.1667-0.0000 0.0000  plane waves:    5969
 k-point  5 :   0.2222-0.0000 0.0000  plane waves:    5916
 k-point  6 :   0.2778-0.0000 0.0000  plane waves:    5908
 k-point  7 :   0.3333-0.0000 0.0000  plane waves:    5888
 k-point  8 :   0.3889-0.0000 0.0000  plane waves:    5894
 k-point  9 :   0.4444-0.0000 0.0000  plane waves:    5848
 k-point 10 :   0.5000-0.0000 0.0000  plane waves:    5816
 k-point 11 :   0.0556 0.0556 0.0000  plane waves:    5993
 k-point 12 :   0.1111 0.0556 0.0000  plane waves:    5981
 k-point 13 :   0.1667 0.0556 0.0000  plane waves:    5944
 k-point 14 :   0.2222 0.0556 0.0000  plane waves:    5915
 k-point 15 :   0.2778 0.0556 0.0000  plane waves:    5909
 k-point 16 :   0.3333 0.0556 0.0000  plane waves:    5888
 k-point 17 :   0.3889 0.0556 0.0000  plane waves:    5862
 k-point 18 :   0.4444 0.0556 0.0000  plane waves:    5832
 k-point 19 :   0.1111 0.1111 0.0000  plane waves:    5939
 k-point 20 :   0.1667 0.1111 0.0000  plane waves:    5909
 k-point 21 :   0.2222 0.1111 0.0000  plane waves:    5905
 k-point 22 :   0.2778 0.1111 0.0000  plane waves:    5903
 k-point 23 :   0.3333 0.1111 0.0000  plane waves:    5873
 k-point 24 :   0.3889 0.1111 0.0000  plane waves:    5866
 k-point 25 :   0.4444 0.1111 0.0000  plane waves:    5850
 k-point 26 :   0.1667 0.1667 0.0000  plane waves:    5917
 k-point 27 :   0.2222 0.1667 0.0000  plane waves:    5909
 k-point 28 :   0.2778 0.1667 0.0000  plane waves:    5893
 k-point 29 :   0.3333 0.1667 0.0000  plane waves:    5878
 k-point 30 :   0.3889 0.1667 0.0000  plane waves:    5867
 k-point 31 :   0.2222 0.2222 0.0000  plane waves:    5919
 k-point 32 :   0.2778 0.2222 0.0000  plane waves:    5884
 k-point 33 :   0.3333 0.2222 0.0000  plane waves:    5880
 k-point 34 :   0.3889 0.2222 0.0000  plane waves:    5882
 k-point 35 :   0.2778 0.2778 0.0000  plane waves:    5878
 k-point 36 :   0.3333 0.2778 0.0000  plane waves:    5882
 k-point 37 :   0.3333 0.3333 0.0000  plane waves:    5910

 maximum and minimum number of plane-waves per node :      3019     2888

 maximum number of plane-waves:      6011
 maximum index in each direction:
   IXMAX=    5   IYMAX=    5   IZMAX=   53
   IXMIN=   -6   IYMIN=   -5   IZMIN=  -53

 parallel 3D FFT for wavefunctions:
    minimum data exchange during FFTs selected (reduces bandwidth)
 parallel 3D FFT for charge:
    minimum data exchange during FFTs selected (reduces bandwidth)

 Broyden mixing: mesh for mixing (old mesh)
   NGX = 11   NGY = 11   NGZ =107
  (NGX  = 36   NGY  = 36   NGZ  =320)
  gives a total of  12947 points

 initial charge density was supplied:
 charge density of overlapping atoms calculated
 number of electron      18.0000000 magnetization
 keeping initial charge density in first step

 Maximum index for augmentation-charges         2904 (set IRDMAX)

 First call to EWALD:  gamma=   0.273
 Maximum number of real-space cells 6x 6x 1
 Maximum number of reciprocal cells 2x 2x11

--------------------------------------- Iteration      1(   1)  ---------------------------------------

 BZINTS: Fermi energy:  6.313326; 18.000000 electrons
         Band energy: -13.724064;  BLOECHL correction: -0.161599

 eigenvalue-minimisations  :  1036
 total energy-change (2. order) : 0.1360047E+03  (-0.5354246E+03)
 number of electron      18.0000000 magnetization
 augmentation part       18.0000000 magnetization

 Free energy of the ion-electron system (eV)
  alpha Z        PSCENC =        10.89288288
  Ewald energy   TEWEN  =      5368.65661653
  -Hartree energ DENC   =     -6042.21104469
  -exchange      EXHF   =         0.00000000
  -V(xc)+E(xc)   XCENC  =       -36.31053806
  PAW double counting   =       406.88651198     -329.34073203
  entropy T*S    EENTRO =         0.00000000
  eigenvalues    EBANDS =       -13.72406360
  atomic energy  EATOM  =       771.15511399
  Solvation  Ediel_sol  =         0.00000000
  free energy    TOTEN  =       136.00474700 eV

  energy without entropy =      136.00474700  energy(sigma->0) =      136.00474700

[...]

 BZINTS: Fermi energy: -2.421136; 18.000000 electrons
         Band energy:-155.685491;  BLOECHL correction:  0.000000

 eigenvalue-minimisations  :  1818
 total energy-change (2. order) :-0.1419614E+03  (-0.1328542E+03)
 number of electron      18.0000000 magnetization
 augmentation part       18.0000000 magnetization

[...]

 Broyden mixing:
  rms(total) = 0.68866E+00    rms(broyden)= 0.68865E+00
  rms(prec ) = 0.73247E+00
  weight for this iteration     100.00

[...]

 eigenvalues of (default mixing * dielectric matrix)
  average eigenvalue GAMMA=   0.8338
  0.8338

[...]

 eigenvalue-minimisations  :  1127
 total energy-change (2. order) : 0.1641684E-03  (-0.5217968E-04)
 number of electron      18.0000016 magnetization
 augmentation part       -0.5505048 magnetization

[...]

 Broyden mixing:
  rms(total) = 0.11440E-03    rms(broyden)= 0.11440E-03
  rms(prec ) = 0.13055E-03
  weight for this iteration     100.00

 eigenvalues of (default mixing * dielectric matrix)
  average eigenvalue GAMMA=   2.2938
  7.7017  4.7303  2.9179  2.4804  2.1403  1.4748  1.4748  0.6685  1.0392  1.0392
  0.9293  0.9293

[...]

--------------------------------------- Iteration      1(  18)  ---------------------------------------

[...]

 eigenvalue-minimisations  :   315
 total energy-change (2. order) :-0.4431385E-05  (-0.4016461E-07)
 number of electron      18.0000016 magnetization
 augmentation part       -0.5500070 magnetization

 Free energy of the ion-electron system (eV)
  alpha Z        PSCENC =        10.89288288
  Ewald energy   TEWEN  =      5368.65661653
  -Hartree energ DENC   =     -6055.62754165
  -exchange      EXHF   =         0.00000000
  -V(xc)+E(xc)   XCENC  =       -35.20093030
  PAW double counting   =       472.18477647     -396.37556799
  entropy T*S    EENTRO =         0.00000000
  eigenvalues    EBANDS =      -157.48214143
  atomic energy  EATOM  =       771.15511399
  Solvation  Ediel_sol  =         0.00000000
  free energy    TOTEN  =       -21.79679150 eV

  energy without entropy =      -21.79679150  energy(sigma->0) =      -21.79679150

 average (electrostatic) potential at core
  the test charge radii are     1.2296  0.9698
  (the norm of the test charge is              1.0000)
       1 -47.2002       2 -95.0391       3 -95.0391

 E-fermi :  -3.7644     XC(G=0):  -2.5026     alpha+bet : -2.3217

 k-point     1 :       0.0000    0.0000    0.0000
  band No.  band energies     occupation
      1     -17.7883      2.00000
      2     -16.5803      2.00000
      3      -9.3088      2.00000
      4      -6.3479      2.00000
      5      -6.3479      2.00000
      6      -5.4867      2.00000
      7      -5.2423      2.00000
      8      -5.2422      2.00000
      9      -3.7664      2.00000
     10      -0.9948      0.00000
     11      -0.9948      0.00000
     12      -0.7711      0.00000
     13      -0.7711      0.00000
     14       1.6640      0.00000

[...]

 k-point    37 :       0.3333    0.3333    0.0000
  band No.  band energies     occupation
      1     -15.7514      2.00000
      2     -15.5916      2.00000
      3      -9.0978      2.00000
      4      -8.2888      2.00000
      5      -7.7949      2.00000
      6      -7.3051      2.00000
      7      -6.6236      2.00000
      8      -5.8953      2.00000
      9      -3.7695      2.00000
     10      -2.1093      0.00000
     11      -0.7282      0.00000
     12      -0.2792      0.00000
     13       1.0504      0.00000
     14       3.4791      0.00000

 soft charge-density along one line, spin component           1
         0         1         2         3         4         5         6         7         8         9
 total charge-density along one line

------------------------ aborting loop because EDIFF is reached ----------------------------------------

  DFT-D2 method for vdW energy calculation

  Parameters of vdW forcefield:
         C6(Jnm^6/mol)     R0(A)
   Mo      24.670          1.639
   S        5.570          1.683

  IVDW =   1
  VDW_RADIUS =    50.000 A
  VDW_S6 =     0.750
  VDW_SR =     1.000
  VDW_D =    20.000
  LVDW_EWALD = F

  Number of pair interactions contributing to vdW energy:   11979
  Edisp (eV):   -0.59080

  FORCE on cell =-STRESS in cart. coord.  units (eV):
  Direction    XX          YY          ZZ          XY          YZ          ZX
  Alpha Z    10.89288    10.89288    10.89288
  Ewald    5935.52296  5935.52341 -6502.38985     0.00019     0.00000     0.00012
  Hartree  6017.36862  6017.36863 -5979.09708     0.00002    -0.00000    -0.00000
  E(xc)     -70.29681   -70.29682   -70.90173    -0.00000    -0.00000    -0.00000
  Local  -12231.98819-12231.98852 12196.42611    -0.00021    -0.00000    -0.00006
  n-local   127.24133   125.70561   131.68275    -0.26509    -0.00000    -0.00001
  augment   -25.56620   -25.56613   -26.66779     0.00007     0.00000    -0.00000
  Kinetic   236.11400   238.46597   239.80573    -7.53516     0.00001     0.00002
  Fock        0.00000     0.00000     0.00000     0.00000     0.00000     0.00000
  vdW         0.16052     0.16052    -0.13380     0.00000     0.00000    -0.00000
  Total      -0.14266    -0.14266    -0.38280    -0.00000     0.00000    -0.00000
  in kB      -0.83978    -0.83978    -2.25331    -0.00000     0.00000    -0.00000

 VOLUME and BASIS-vectors are now :
  energy-cutoff  :      450.00
  volume of cell :      272.18
      direct lattice vectors                 reciprocal lattice vectors
     3.190315730  0.000000000  0.000000000     0.313448600  0.180969634  0.000000000
    -1.595157865  2.762894468  0.000000000     0.000000000  0.361939267  0.000000000
     0.000000000  0.000000000 30.879004300     0.000000000  0.000000000  0.032384464

  length of vectors
     3.190315730  3.190315730 30.879004300     0.361939267  0.361939267  0.032384464

 FORCES acting on ions
    electron-ion (+dipol)            ewald-force                    non-local-force                 convergence-correction
   -.953E-05 -.170E-05 -.105E-04   0.931E-04 -.108E-03 0.343E-06   -.347E-17 0.000E+00 -.169E-20   0.362E-09 -.293E-09 0.857E-07
   -.853E-03 0.494E-03 0.596E+03   -.864E-04 0.538E-04 -.601E+03   0.867E-18 -.173E-17 0.480E+01   -.687E-08 0.307E-08 0.235E-02
   0.864E-03 0.494E-03 -.596E+03   -.674E-05 0.538E-04 0.601E+03   0.139E-16 0.347E-17 -.480E+01   0.785E-08 0.307E-08 -.235E-02
   0.206E-05 0.986E-03 0.209E-04   0.253E-13 0.199E-13 0.000E+00   0.113E-16 0.173E-17 0.000E+00   0.134E-08 0.585E-08 0.224E-06

 POSITION                                       TOTAL-FORCE (eV/Angst)
     -0.00000      1.84193      3.71975         0.000000      0.000000     -0.000000
      1.59516      0.92096      2.15487        -0.000000     -0.000000      0.116111
      1.59516      0.92096      5.28464         0.000000      0.000000     -0.116111
    total drift:                                0.000002      0.000986      0.000021

  FREE ENERGIE OF THE ION-ELECTRON SYSTEM (eV)
  free  energy   TOTEN  =       -22.38758971 eV

  energy  without entropy=      -22.38758971  energy(sigma->0) =      -22.38758971

 BZINTS: Fermi energy: -3.764399; 18.000000 electrons
         Band energy:-157.482141;  BLOECHL correction:  0.000000