 vasp.5.4.4.18Apr17-6-g9f103f2a35 (build Jun 30 2017 11:15:00) complex

 executed on    STALLO_VASP_5.4.4 date 2019.11.08  12:18:47

 INCAR:
 POTCAR:   PAW_PBE Mo 08Apr2002
 POTCAR:    PAW_PBE S 17Jan2003
 POTCAR:   PAW_PBE Mo 08Apr2002
   VRHFIN =Mo: 4p5s4d

   TITEL  = PAW_PBE Mo 08Apr2002
   POMASS =   95.940; ZVAL   =    6.000    mass and valenz
   ENMAX  =  224.584; ENMIN  =  168.438 eV
   QCUT   =   -4.063; QGAM   =    8.126    optimization parameters

   Description
     l     E      TYP  RCUT    TYP  RCUT
     2   .000     23  2.500
     2   .000     23  2.500
     0   .000     23  2.600
     0  1.000     23  2.600
     1   .400     23  2.750
     1  2.000     23  2.750
     3   .000      7   .000

 POTCAR:    PAW_PBE S 17Jan2003
   VRHFIN =S : s2p4

   TITEL  = PAW_PBE S 17Jan2003
   POMASS =   32.066; ZVAL   =    6.000    mass and valenz
   ENMAX  =  280.000; ENMIN  =  194.016 eV
   QCUT   =   -4.360; QGAM   =    8.721    optimization parameters

   Description
     l     E      TYP  RCUT    TYP  RCUT
     0   .000     23  1.900
     0   .000     23  1.900
     1   .000     23  1.900
     1   .000     23  1.900
     2   .000     23  1.900

 PAW_PBE Mo 08Apr2002                   :
  PAW_PBE S 17Jan2003                   :

 POSCAR: MoS2_mp-2815_computed
  positions in direct lattice
 exchange correlation table for  LEXCH =        8
   RHO(1)=    0.500       N(1)  =     2000
   RHO(2)=  100.500       N(2)  =     4000

 ion  position               nearest neighbor table
   1  0.333  0.667  0.250-   5 2.42   4 2.42   4 2.42   5 2.42   5 2.42   4 2.42
   2  0.667  0.333  0.750-   6 2.42   3 2.42   3 2.42   6 2.42   6 2.42   3 2.42
   3  0.333  0.667  0.855-   2 2.42   2 2.42   2 2.42
   4  0.667  0.333  0.145-   1 2.42   1 2.42   1 2.42
   5  0.667  0.333  0.355-   1 2.42   1 2.42   1 2.42
   6  0.333  0.667  0.645-   2 2.42   2 2.42   2 2.42

  LATTYP: Found a hexagonal cell.
 ALAT       =     3.1903157300
 C/A-ratio  =     4.6638030713

  Lattice vectors:

 A1 = (   3.1903157300,   0.0000000000,   0.0000000000)
 A2 = (  -1.5951578650,   2.7628944683,   0.0000000000)
 A3 = (   0.0000000000,   0.0000000000,  14.8790043000)

Analysis of symmetry for initial positions (statically):
 Subroutine PRICEL returns:
 Original cell was already a primitive cell.

 Routine SETGRP: Setting up the symmetry group for a
 hexagonal supercell.

 Subroutine GETGRP returns: Found 24 space group operations
 (whereof 12 operations were pure point group operations)
 out of a pool of 24 trial point group operations.

The static configuration has the point symmetry D_3d.
 The point group associated with its full space group is D_6h.

Analysis of symmetry for dynamics (positions and initial velocities):
 Subroutine PRICEL returns:
 Original cell was already a primitive cell.

 Routine SETGRP: Setting up the symmetry group for a
 hexagonal supercell.

 Subroutine GETGRP returns: Found 24 space group operations
 (whereof 12 operations were pure point group operations)
 out of a pool of 24 trial point group operations.

The dynamic configuration has the point symmetry D_3d.
 The point group associated with its full space group is D_6h.

 Subroutine INISYM returns: Found 24 space group operations
 (whereof 12 operations are pure point group operations),
 and found     1 'primitive' translations

 KPOINTS: k-density: 6.0

Automatic generation of k-mesh.
Space group operators:
 irot       det(A)        alpha          n_x          n_y          n_z        tau_x        tau_y        tau_z
    1     1.000000     0.000001     1.000000     0.000000     0.000000     0.000000     0.000000     0.000000
    2    -1.000000     0.000001     1.000000     0.000000     0.000000     0.000000     0.000000     0.000000
    3     1.000000   120.000000     0.000000     0.000000    -1.000000     0.000000     0.000000     0.000000
    4    -1.000000   120.000000     0.000000     0.000000    -1.000000     0.000000     0.000000     0.000000
    5     1.000000   120.000000     0.000000     0.000000     1.000000     0.000000     0.000000     0.000000
    6    -1.000000   120.000000     0.000000     0.000000     1.000000     0.000000     0.000000     0.000000
    7     1.000000   179.999999     1.000000    -0.000000     0.000000     0.000000     0.000000     0.000000
    8    -1.000000   179.999999     1.000000    -0.000000     0.000000     0.000000     0.000000     0.000000
    9     1.000000   180.000000     0.500000    -0.866025     0.000000     0.000000     0.000000     0.000000
   10    -1.000000   180.000000     0.500000    -0.866025     0.000000     0.000000     0.000000     0.000000
   11     1.000000   180.000000    -0.500000    -0.866025     0.000000     0.000000     0.000000     0.000000
   12    -1.000000   180.000000    -0.500000    -0.866025     0.000000     0.000000     0.000000     0.000000
   13     1.000000    60.000000     0.000000     0.000000    -1.000000     0.000001     0.000000     0.500000
   14    -1.000000    60.000000     0.000000     0.000000    -1.000000     0.000001     0.000000     0.500000
   15     1.000000   180.000000     0.000000     0.000000     1.000000     0.000000     0.000000     0.500000
   16    -1.000000   180.000000     0.000000     0.000000     1.000000     0.000000     0.000000     0.500000
   17     1.000000    60.000000     0.000000     0.000000     1.000000     0.000000     0.000000     0.500000
   18    -1.000000    60.000000     0.000000     0.000000     1.000000     0.000000     0.000000     0.500000
   19     1.000000   179.999999     0.866025    -0.500000     0.000000     0.000000     0.000000     0.500000
   20    -1.000000   179.999999     0.866025    -0.500000     0.000000     0.000000     0.000000     0.500000
   21     1.000000   180.000000     0.000000     1.000000     0.000000     0.000001     0.000000     0.500000
   22    -1.000000   180.000000     0.000000     1.000000     0.000000     0.000001     0.000000     0.500000
   23     1.000000   179.999999     0.866025     0.500000     0.000000     0.000000     0.000000     0.500000
   24    -1.000000   179.999999     0.866025     0.500000     0.000000     0.000000     0.000000     0.500000

 Subroutine IBZKPT returns following result:

 Found     38 irreducible k-points:

 Following reciprocal coordinates:
            Coordinates               Weight
  0.000000  0.000000  0.000000      1.000000
  0.083333 -0.000000  0.000000      6.000000
  0.166667 -0.000000  0.000000      6.000000
  0.250000 -0.000000  0.000000      6.000000
  0.333333 -0.000000  0.000000      6.000000
  0.416667 -0.000000  0.000000      6.000000
  0.500000 -0.000000  0.000000      3.000000
  0.083333  0.083333  0.000000      6.000000
  0.166667  0.083333  0.000000     12.000000
  0.250000  0.083333  0.000000     12.000000
  0.333333  0.083333  0.000000     12.000000
  0.416667  0.083333  0.000000     12.000000
  0.166667  0.166667  0.000000      6.000000
  0.250000  0.166667  0.000000     12.000000
  0.333333  0.166667  0.000000     12.000000
  0.416667  0.166667  0.000000      6.000000
  0.250000  0.250000  0.000000      6.000000
  0.333333  0.250000  0.000000     12.000000
  0.333333  0.333333  0.000000      2.000000
  0.000000  0.000000  0.333333      2.000000
  0.083333 -0.000000  0.333333     12.000000
  0.166667 -0.000000  0.333333     12.000000
  0.250000 -0.000000  0.333333     12.000000
  0.333333 -0.000000  0.333333     12.000000
  0.416667 -0.000000  0.333333     12.000000
  0.500000 -0.000000  0.333333      6.000000
  0.083333  0.083333  0.333333     12.000000
  0.166667  0.083333  0.333333     24.000000
  0.250000  0.083333  0.333333     24.000000
  0.333333  0.083333  0.333333     24.000000
  0.416667  0.083333  0.333333     24.000000
  0.166667  0.166667  0.333333     12.000000
  0.250000  0.166667  0.333333     24.000000
  0.333333  0.166667  0.333333     24.000000
  0.416667  0.166667  0.333333     12.000000
  0.250000  0.250000  0.333333     12.000000
  0.333333  0.250000  0.333333     24.000000
  0.333333  0.333333  0.333333      4.000000

 Following cartesian coordinates:
            Coordinates               Weight
  0.000000  0.000000  0.000000      1.000000
  0.026121  0.015081  0.000000      6.000000
  0.052241  0.030162  0.000000      6.000000
  0.078362  0.045242  0.000000      6.000000
  0.104483  0.060323  0.000000      6.000000
  0.130604  0.075404  0.000000      6.000000
  0.156724  0.090485  0.000000      3.000000
  0.026121  0.045242  0.000000      6.000000
  0.052241  0.060323  0.000000     12.000000
  0.078362  0.075404  0.000000     12.000000
  0.104483  0.090485  0.000000     12.000000
  0.130604  0.105566  0.000000     12.000000
  0.052241  0.090485  0.000000      6.000000
  0.078362  0.105566  0.000000     12.000000
  0.104483  0.120646  0.000000     12.000000
  0.130604  0.135727  0.000000      6.000000
  0.078362  0.135727  0.000000      6.000000
  0.104483  0.150808  0.000000     12.000000
  0.104483  0.180970  0.000000      2.000000
  0.000000  0.000000  0.022403      2.000000
  0.026121  0.015081  0.022403     12.000000
  0.052241  0.030162  0.022403     12.000000
  0.078362  0.045242  0.022403     12.000000
  0.104483  0.060323  0.022403     12.000000
  0.130604  0.075404  0.022403     12.000000
  0.156724  0.090485  0.022403      6.000000
  0.026121  0.045242  0.022403     12.000000
  0.052241  0.060323  0.022403     24.000000
  0.078362  0.075404  0.022403     24.000000
  0.104483  0.090485  0.022403     24.000000
  0.130604  0.105566  0.022403     24.000000
  0.052241  0.090485  0.022403     12.000000
  0.078362  0.105566  0.022403     24.000000
  0.104483  0.120646  0.022403     24.000000
  0.130604  0.135727  0.022403     12.000000
  0.078362  0.135727  0.022403     12.000000
  0.104483  0.150808  0.022403     24.000000
  0.104483  0.180970  0.022403      4.000000

 TETIRR: Found    369 inequivalent tetrahedra from     2592

 SYSTEM =  unknown system
 POSCAR =  MoS2_mp-2815_computed

 Startparameter for this run:
   NWRITE =      2    write-flag & timer
   PREC   = normal    normal or accurate (medium, high low for compatibility)
   ISTART =      0    job   : 0-new  1-cont  2-samecut
   ICHARG =      2    charge: 1-file 2-atom 10-const
   ISPIN  =      1    spin polarized calculation?
   LNONCOLLINEAR =      F non collinear calculations
   LSORBIT =      F    spin-orbit coupling
   INIWAV =      1    electr: 0-lowe 1-rand  2-diag
   LASPH  =      F    aspherical Exc in radial PAW
   METAGGA=      F    non-selfconsistent MetaGGA calc.

 Electronic Relaxation 1
   ENCUT  =  450.0 eV  33.07 Ry    5.75 a.u.   5.52  5.52 25.74*2*pi/ulx,y,z
   ENINI  =  450.0     initial cutoff
   ENAUG  =  345.3 eV  augmentation charge cutoff
   NELM   =     60;   NELMIN=  4; NELMDL=  0     # of ELM steps
   EDIFF  = 0.1E-04   stopping-criterion for ELM
   LREAL  =      F    real-space projection
   NLSPLINE    = F    spline interpolate recip. space projectors
   LCOMPAT=      F    compatible to vasp.4.4
   GGA_COMPAT  = T    GGA compatible to vasp.4.4-vasp.4.6
   LMAXPAW     = -100 max onsite density
   LMAXMIX     =    2 max onsite mixed and CHGCAR
   VOSKOWN=      0    Vosko Wilk Nusair interpolation
[...]
   0.10448287  0.06032321  0.00000000       0.014
   0.13060358  0.07540401  0.00000000       0.014
   0.15672430  0.09048482  0.00000000       0.007
   0.02612072  0.04524241  0.00000000       0.014
   0.05224143  0.06032321  0.00000000       0.028
   0.07836215  0.07540401  0.00000000       0.028
   0.10448287  0.09048482  0.00000000       0.028
   0.13060358  0.10556562  0.00000000       0.028
   0.05224143  0.09048482  0.00000000       0.014
   0.07836215  0.10556562  0.00000000       0.028
   0.10448287  0.12064642  0.00000000       0.028
   0.13060358  0.13572723  0.00000000       0.014
   0.07836215  0.13572723  0.00000000       0.014
   0.10448287  0.15080803  0.00000000       0.028
   0.10448287  0.18096963  0.00000000       0.005
   0.00000000  0.00000000  0.02240293       0.005
   0.02612072  0.01508080  0.02240293       0.028
   0.05224143  0.03016161  0.02240293       0.028
   0.07836215  0.04524241  0.02240293       0.028
   0.10448287  0.06032321  0.02240293       0.028
   0.13060358  0.07540401  0.02240293       0.028
   0.15672430  0.09048482  0.02240293       0.014
   0.02612072  0.04524241  0.02240293       0.028
   0.05224143  0.06032321  0.02240293       0.056
   0.07836215  0.07540401  0.02240293       0.056
   0.10448287  0.09048482  0.02240293       0.056
   0.13060358  0.10556562  0.02240293       0.056
   0.05224143  0.09048482  0.02240293       0.028
   0.07836215  0.10556562  0.02240293       0.056
   0.10448287  0.12064642  0.02240293       0.056
   0.13060358  0.13572723  0.02240293       0.028
   0.07836215  0.13572723  0.02240293       0.028
   0.10448287  0.15080803  0.02240293       0.056
   0.10448287  0.18096963  0.02240293       0.009

 k-points in reciprocal lattice and weights: k-density: 6.0
   0.00000000  0.00000000  0.00000000       0.002
   0.08333333 -0.00000000  0.00000000       0.014
   0.16666667 -0.00000000  0.00000000       0.014
   0.25000000 -0.00000000  0.00000000       0.014
   0.33333333 -0.00000000  0.00000000       0.014
   0.41666667 -0.00000000  0.00000000       0.014
   0.50000000 -0.00000000  0.00000000       0.007
   0.08333333  0.08333333  0.00000000       0.014
   0.16666667  0.08333333  0.00000000       0.028
   0.25000000  0.08333333  0.00000000       0.028
   0.33333333  0.08333333  0.00000000       0.028
   0.41666667  0.08333333  0.00000000       0.028
   0.16666667  0.16666667  0.00000000       0.014
   0.25000000  0.16666667  0.00000000       0.028
   0.33333333  0.16666667  0.00000000       0.028
   0.41666667  0.16666667  0.00000000       0.014
   0.25000000  0.25000000  0.00000000       0.014
   0.33333333  0.25000000  0.00000000       0.028
   0.33333333  0.33333333  0.00000000       0.005
   0.00000000  0.00000000  0.33333333       0.005
   0.08333333 -0.00000000  0.33333333       0.028
   0.16666667 -0.00000000  0.33333333       0.028
   0.25000000 -0.00000000  0.33333333       0.028
   0.33333333 -0.00000000  0.33333333       0.028
   0.41666667 -0.00000000  0.33333333       0.028
   0.50000000 -0.00000000  0.33333333       0.014
   0.08333333  0.08333333  0.33333333       0.028
   0.16666667  0.08333333  0.33333333       0.056
   0.25000000  0.08333333  0.33333333       0.056
   0.33333333  0.08333333  0.33333333       0.056
   0.41666667  0.08333333  0.33333333       0.056
   0.16666667  0.16666667  0.33333333       0.028
   0.25000000  0.16666667  0.33333333       0.056
   0.33333333  0.16666667  0.33333333       0.056
   0.41666667  0.16666667  0.33333333       0.028
   0.25000000  0.25000000  0.33333333       0.028
   0.33333333  0.25000000  0.33333333       0.056
   0.33333333  0.33333333  0.33333333       0.009

 position of ions in fractional coordinates (direct lattice)
   0.33333300  0.66666700  0.25000000
   0.66666700  0.33333300  0.75000000
   0.33333300  0.66666700  0.85517400
   0.66666700  0.33333300  0.14482600
   0.66666600  0.33333300  0.35517400
   0.33333400  0.66666700  0.64482600

 position of ions in cartesian coordinates  (Angst):
  -0.00000160  1.84193057  3.71975108
   1.59515946  0.92096390 11.15925323
  -0.00000160  1.84193057 12.72413762
   1.59515946  0.92096390  2.15486668
   1.59515627  0.92096390  5.28463547
   0.00000160  1.84193057  9.59436883

 k-point  1 :   0.0000 0.0000 0.0000  plane waves:    2895
 k-point  2 :   0.0833-0.0000 0.0000  plane waves:    2895
 k-point  3 :   0.1667-0.0000 0.0000  plane waves:    2867
 k-point  4 :   0.2500-0.0000 0.0000  plane waves:    2848
 k-point  5 :   0.3333-0.0000 0.0000  plane waves:    2838
 k-point  6 :   0.4167-0.0000 0.0000  plane waves:    2820
 k-point  7 :   0.5000-0.0000 0.0000  plane waves:    2784
 k-point  8 :   0.0833 0.0833 0.0000  plane waves:    2889
 k-point  9 :   0.1667 0.0833 0.0000  plane waves:    2854
 k-point 10 :   0.2500 0.0833 0.0000  plane waves:    2847
 k-point 11 :   0.3333 0.0833 0.0000  plane waves:    2822
 k-point 12 :   0.4167 0.0833 0.0000  plane waves:    2816
 k-point 13 :   0.1667 0.1667 0.0000  plane waves:    2851
 k-point 14 :   0.2500 0.1667 0.0000  plane waves:    2849
 k-point 15 :   0.3333 0.1667 0.0000  plane waves:    2832
 k-point 16 :   0.4167 0.1667 0.0000  plane waves:    2834
 k-point 17 :   0.2500 0.2500 0.0000  plane waves:    2838
 k-point 18 :   0.3333 0.2500 0.0000  plane waves:    2840
 k-point 19 :   0.3333 0.3333 0.0000  plane waves:    2832
 k-point 20 :   0.0000 0.0000 0.3333  plane waves:    2890
 k-point 21 :   0.0833-0.0000 0.3333  plane waves:    2886
 k-point 22 :   0.1667-0.0000 0.3333  plane waves:    2875
 k-point 23 :   0.2500-0.0000 0.3333  plane waves:    2859
 k-point 24 :   0.3333-0.0000 0.3333  plane waves:    2836
 k-point 25 :   0.4167-0.0000 0.3333  plane waves:    2826
 k-point 26 :   0.5000-0.0000 0.3333  plane waves:    2814
 k-point 27 :   0.0833 0.0833 0.3333  plane waves:    2879
 k-point 28 :   0.1667 0.0833 0.3333  plane waves:    2852
 k-point 29 :   0.2500 0.0833 0.3333  plane waves:    2848
 k-point 30 :   0.3333 0.0833 0.3333  plane waves:    2831
 k-point 31 :   0.4167 0.0833 0.3333  plane waves:    2822
 k-point 32 :   0.1667 0.1667 0.3333  plane waves:    2853
 k-point 33 :   0.2500 0.1667 0.3333  plane waves:    2847
 k-point 34 :   0.3333 0.1667 0.3333  plane waves:    2828
 k-point 35 :   0.4167 0.1667 0.3333  plane waves:    2816
 k-point 36 :   0.2500 0.2500 0.3333  plane waves:    2831
 k-point 37 :   0.3333 0.2500 0.3333  plane waves:    2831
 k-point 38 :   0.3333 0.3333 0.3333  plane waves:    2856

 maximum and minimum number of plane-waves per node :      1453     1381

 maximum number of plane-waves:      2895
 maximum index in each direction:
   IXMAX=    5   IYMAX=    5   IZMAX=   25
   IXMIN=   -6   IYMIN=   -5   IZMIN=  -26

 parallel 3D FFT for wavefunctions:
    minimum data exchange during FFTs selected (reduces bandwidth)
 parallel 3D FFT for charge:
    minimum data exchange during FFTs selected (reduces bandwidth)

 Broyden mixing: mesh for mixing (old mesh)
   NGX = 11   NGY = 11   NGZ = 51
  (NGX  = 36   NGY  = 36   NGZ  =160)
  gives a total of   6171 points

 initial charge density was supplied:
 charge density of overlapping atoms calculated
 number of electron      36.0000000 magnetization
 keeping initial charge density in first step

 Maximum index for augmentation-charges         3021 (set IRDMAX)

 First call to EWALD:  gamma=   0.349
 Maximum number of real-space cells 5x 5x 1
 Maximum number of reciprocal cells 2x 2x 7

--------------------------------------- Iteration      1(   1)  ---------------------------------------

 BZINTS: Fermi energy: 14.533035; 36.000000 electrons
         Band energy: 164.827841;  BLOECHL correction: -0.278118

 eigenvalue-minimisations  :  1672
 total energy-change (2. order) : 0.1980703E+03  (-0.1469614E+04)
 number of electron      36.0000000 magnetization
 augmentation part       36.0000000 magnetization

 Free energy of the ion-electron system (eV)
  alpha Z        PSCENC =        90.42577596
  Ewald energy   TEWEN  =     -1146.88905665
  -Hartree energ DENC   =      -535.10238363
  -exchange      EXHF   =         0.00000000
  -V(xc)+E(xc)   XCENC  =       -72.59368150
  PAW double counting   =       813.77302396     -658.68146406
  entropy T*S    EENTRO =         0.00000000
  eigenvalues    EBANDS =       164.82784122
  atomic energy  EATOM  =      1542.31022798
  Solvation  Ediel_sol  =         0.00000000
  free energy    TOTEN  =       198.07028330 eV

  energy without entropy =      198.07028330  energy(sigma->0) =      198.07028330

[...]

 eigenvalue-minimisations  :  2270
 total energy-change (2. order) :-0.2267464E+03  (-0.2199169E+03)
 number of electron      36.0000000 magnetization
 augmentation part       36.0000000 magnetization

[...]

 Broyden mixing:
  rms(total) = 0.97340E+00    rms(broyden)= 0.97339E+00
  rms(prec ) = 0.12180E+01
  weight for this iteration     100.00

[...]

 eigenvalues of (default mixing * dielectric matrix)
  average eigenvalue GAMMA=   0.8738
  0.8738

[...]

 eigenvalue-minimisations  :  2181
 total energy-change (2. order) :-0.1075319E-04  (-0.2301795E-04)
 number of electron      36.0000007 magnetization
 augmentation part       -1.1015996 magnetization

 Broyden mixing:
  rms(total) = 0.16424E-02    rms(broyden)= 0.16424E-02
  rms(prec ) = 0.21830E-02
  weight for this iteration     100.00

 eigenvalues of (default mixing * dielectric matrix)
  average eigenvalue GAMMA=   1.7327
  3.2854  2.5889  2.5889  1.6276  1.1255  0.8849  0.8849  0.8758

[...]

--------------------------------------- Iteration      1(  14)  ---------------------------------------

[...]

 eigenvalue-minimisations  :  1565
 total energy-change (2. order) : 0.9943147E-05  (-0.4840156E-05)
 number of electron      36.0000007 magnetization
 augmentation part       -1.1015996 magnetization

 Free energy of the ion-electron system (eV)
  alpha Z        PSCENC =        90.42577596
  Ewald energy   TEWEN  =     -1146.88905665
  -Hartree energ DENC   =      -542.94853790
  -exchange      EXHF   =         0.00000000
  -V(xc)+E(xc)   XCENC  =       -70.39259167
  PAW double counting   =       944.38100939     -792.76294033
  entropy T*S    EENTRO =         0.00000000
  eigenvalues    EBANDS =       -67.72961871
  atomic energy  EATOM  =      1542.31022798
  Solvation  Ediel_sol  =         0.00000000
  free energy    TOTEN  =       -43.60573193 eV

  energy without entropy =      -43.60573193  energy(sigma->0) =      -43.60573193

 average (electrostatic) potential at core
  the test charge radii are     1.2296  0.9698
  (the norm of the test charge is              1.0000)
       1 -40.3320       2 -40.3320       3 -88.1709       4 -88.1709       5 -88.1709
       6 -88.1709

 E-fermi :   3.3033     XC(G=0):  -9.3248     alpha+bet : -9.6368

 k-point     1 :       0.0000    0.0000    0.0000
  band No.  band energies     occupation
      1     -10.9299      2.00000
      2     -10.9109      2.00000
      3      -9.7294      2.00000
      4      -9.6954      2.00000
      5      -2.5233      2.00000
      6      -2.3618      2.00000
      7       0.5199      2.00000
      8       0.5199      2.00000
      9       0.5205      2.00000
     10       0.5205      2.00000
     11       1.1061      2.00000
     12       1.6249      2.00000
     13       1.6250      2.00000
     14       1.6268      2.00000
     15       1.6269      2.00000
     16       1.6746      2.00000
     17       2.9227      2.00000
     18       3.2986      2.00000
     19       5.8749      0.00000
     20       5.9127      0.00000
     21       6.0169      0.00000
     22       6.0849      0.00000

[...]

 k-point    38 :       0.3333    0.3333    0.3333
  band No.  band energies     occupation
      1      -8.8835      2.00000
      2      -8.8835      2.00000
      3      -8.7237      2.00000
      4      -8.7237      2.00000
      5      -2.2328      2.00000
      6      -2.2265      2.00000
      7      -1.4210      2.00000
      8      -1.4210      2.00000
      9      -0.9325      2.00000
     10      -0.9211      2.00000
     11      -0.4398      2.00000
     12      -0.4398      2.00000
     13       0.2453      2.00000
     14       0.2453      2.00000
     15       0.9714      2.00000
     16       0.9714      2.00000
     17       3.0935      2.00000
     18       3.1032      2.00000
     19       4.7588      0.00000
     20       4.7588      0.00000
     21       6.0917      0.00000
     22       6.1841      0.00000

 soft charge-density along one line, spin component           1
         0         1         2         3         4         5         6         7         8         9
 total charge-density along one line

------------------------ aborting loop because EDIFF is reached ----------------------------------------

  DFT-D2 method for vdW energy calculation

  Parameters of vdW forcefield:
         C6(Jnm^6/mol)     R0(A)
   Mo      24.670          1.639
   S        5.570          1.683

  IVDW =   1
  VDW_RADIUS =    50.000 A
  VDW_S6 =     0.750
  VDW_SR =     1.000
  VDW_D =    20.000
  LVDW_EWALD = F

  Number of pair interactions contributing to vdW energy:   84128
  Edisp (eV):   -1.33129

  FORCE on cell =-STRESS in cart. coord.  units (eV):
  Direction    XX          YY          ZZ          XY          YZ          ZX
  Alpha Z    90.42578    90.42578    90.42578
  Ewald     -12.90873   -12.90785 -1121.07429     0.00038     0.00000     0.00025
  Hartree   466.57998   466.57999  -390.19840     0.00003    -0.00000    -0.00001
  E(xc)    -140.60531  -140.60532  -141.79626    -0.00001    -0.00000    -0.00000
  Local   -1080.53008 -1080.53075   872.53854    -0.00042    -0.00000    -0.00011
  n-local   254.45942   251.46531   263.36729    -0.52475     0.00282     0.00294
  augment   -51.13753   -51.13738   -53.33907     0.00014     0.00000    -0.00001
  Kinetic   472.23793   477.01997   479.58392   -14.96208     0.00465     0.00493
  Fock        0.00000     0.00000     0.00000     0.00000     0.00000     0.00000
  vdW         0.17103     0.17103    -0.86546     0.00000     0.00000    -0.00000
  Total      -0.41337    -0.41337    -1.35795     0.00000     0.00000    -0.00000
  in kB      -5.04983    -5.04983   -16.58911     0.00000     0.00000    -0.00000

 VOLUME and BASIS-vectors are now :
  energy-cutoff  :      450.00
  volume of cell :      131.15
      direct lattice vectors                 reciprocal lattice vectors
     3.190315730  0.000000000  0.000000000     0.313448600  0.180969634  0.000000000
    -1.595157865  2.762894468  0.000000000     0.000000000  0.361939267  0.000000000
     0.000000000  0.000000000 14.879004300     0.000000000  0.000000000  0.067208798

  length of vectors
     3.190315730  3.190315730 14.879004300     0.361939267  0.361939267  0.067208798

 FORCES acting on ions
    electron-ion (+dipol)            ewald-force                    non-local-force                 convergence-correction
   0.473E-04 -.345E-04 -.990E-05   0.928E-04 -.107E-03 0.288E-09   -.694E-17 0.000E+00 0.169E-20   0.168E-07 -.134E-07 -.866E-09
   0.660E-04 -.309E-04 -.990E-05   -.928E-04 0.107E-03 -.288E-09   0.520E-16 0.000E+00 -.169E-20   -.149E-07 0.124E-07 -.867E-09
   0.525E-03 -.305E-03 -.242E+03   0.865E-04 -.537E-04 0.247E+03   -.195E-16 0.954E-17 -.479E+01   0.131E-07 -.736E-08 0.316E-02
   -.117E-02 0.679E-03 0.242E+03   -.865E-04 0.537E-04 -.247E+03   0.239E-16 -.954E-17 0.479E+01   -.263E-07 0.150E-07 -.316E-02
   0.523E-03 0.689E-03 -.242E+03   -.638E-05 0.537E-04 0.247E+03   0.330E-16 0.156E-16 -.479E+01   0.150E-07 0.158E-07 0.316E-02
   -.121E-02 -.292E-03 0.242E+03   0.638E-05 -.537E-04 -.247E+03   -.737E-17 -.156E-16 0.479E+01   -.310E-07 -.656E-08 -.316E-02
   -.122E-02 0.706E-03 -.110E-04   -.561E-14 0.109E-13 0.284E-13   0.750E-16 0.000E+00 0.000E+00   -.272E-07 0.157E-07 -.154E-08

 POSITION                                       TOTAL-FORCE (eV/Angst)
     -0.00000      1.84193      3.71975        -0.000000     -0.000000      0.000000
      1.59516      0.92096     11.15925         0.000000     -0.000000      0.000000
     -0.00000      1.84193     12.72414        -0.000000      0.000000     -0.084060
      1.59516      0.92096      2.15487         0.000000     -0.000000      0.084060
      1.59516      0.92096      5.28464         0.000000     -0.000000     -0.084060
      0.00000      1.84193      9.59437        -0.000000      0.000000      0.084060
    total drift:                               -0.001223      0.000706     -0.000011

  FREE ENERGIE OF THE ION-ELECTRON SYSTEM (eV)
  free  energy   TOTEN  =       -44.93701895 eV

  energy  without entropy=      -44.93701895  energy(sigma->0) =      -44.93701895

 BZINTS: Fermi energy:  3.303336; 36.000000 electrons
         Band energy: -67.729619;  BLOECHL correction:  0.000000