 vasp.5.4.4.18Apr17-6-g9f103f2a35 (build Jun 30 2017 11:15:00) complex

 executed on    STALLO_VASP_5.4.4 date 2019.11.08  14:33:12

 INCAR:
 POTCAR:   PAW_PBE Mo 08Apr2002
 POTCAR:    PAW_PBE S 17Jan2003
 POTCAR:   PAW_PBE Mo 08Apr2002
   VRHFIN =Mo: 4p5s4d

   TITEL  = PAW_PBE Mo 08Apr2002
   POMASS =   95.940; ZVAL   =    6.000    mass and valenz
   ENMAX  =  224.584; ENMIN  =  168.438 eV
   QCUT   =   -4.063; QGAM   =    8.126    optimization parameters

   Description
     l     E      TYP  RCUT    TYP  RCUT
     2   .000     23  2.500
     2   .000     23  2.500
     0   .000     23  2.600
     0  1.000     23  2.600
     1   .400     23  2.750
     1  2.000     23  2.750
     3   .000      7   .000

 POTCAR:    PAW_PBE S 17Jan2003
   VRHFIN =S : s2p4

   TITEL  = PAW_PBE S 17Jan2003
   POMASS =   32.066; ZVAL   =    6.000    mass and valenz
   ENMAX  =  280.000; ENMIN  =  194.016 eV
   QCUT   =   -4.360; QGAM   =    8.721    optimization parameters

   Description
     l     E      TYP  RCUT    TYP  RCUT
     0   .000     23  1.900
     0   .000     23  1.900
     1   .000     23  1.900
     1   .000     23  1.900
     2   .000     23  1.900

 PAW_PBE Mo 08Apr2002                   :
  PAW_PBE S 17Jan2003                   :

 POSCAR: MoS2_mp-2815_computed
  positions in cartesian coordinates
  velocities in cartesian coordinates
 exchange correlation table for  LEXCH =        8
   RHO(1)=    0.500       N(1)  =     2000
   RHO(2)=  100.500       N(2)  =     4000

 ion  position               nearest neighbor table
   1  0.333  0.667  0.120-   3 2.42   2 2.42   2 2.42   3 2.42   3 2.42   2 2.42
   2  0.667  0.333  0.070-   1 2.42   1 2.42   1 2.42
   3  0.667  0.333  0.171-   1 2.42   1 2.42   1 2.42

  LATTYP: Found a hexagonal cell.
 ALAT       =     3.1903157300
 C/A-ratio  =     9.6789806757

  Lattice vectors:

 A1 = (   3.1903157300,   0.0000000000,   0.0000000000)
 A2 = (  -1.5951578650,   2.7628944683,   0.0000000000)
 A3 = (   0.0000000000,   0.0000000000,  30.8790043000)

Analysis of symmetry for initial positions (statically):
 Subroutine PRICEL returns:
 Original cell was already a primitive cell.

 Routine SETGRP: Setting up the symmetry group for a
 hexagonal supercell.

 Subroutine GETGRP returns: Found 12 space group operations
 (whereof  6 operations were pure point group operations)
 out of a pool of 24 trial point group operations.

The static configuration has the point symmetry C_3v.
 The point group associated with its full space group is D_3h.

Analysis of symmetry for dynamics (positions and initial velocities):
 Subroutine PRICEL returns:
 Original cell was already a primitive cell.

 Routine SETGRP: Setting up the symmetry group for a
 hexagonal supercell.

 Subroutine GETGRP returns: Found 12 space group operations
 (whereof  6 operations were pure point group operations)
 out of a pool of 24 trial point group operations.

The dynamic configuration has the point symmetry C_3v.
 The point group associated with its full space group is D_3h.

 Subroutine INISYM returns: Found 12 space group operations
 (whereof  6 operations are pure point group operations),
 and found     1 'primitive' translations

 KPOINTS: k-density: 5.0

Automatic generation of k-mesh.
Space group operators:
 irot       det(A)        alpha          n_x          n_y          n_z        tau_x        tau_y        tau_z
    1     1.000000     0.000000     1.000000     0.000000     0.000000     0.000000     0.000000     0.000000
    2     1.000000   120.000000     0.000000     0.000000    -1.000000     0.000000     0.000000     0.000000
    3     1.000000   120.000000     0.000000     0.000000     1.000000     0.000000     0.000000     0.000000
    4    -1.000000   180.000000     1.000000    -0.000000     0.000000     0.000000     0.000000     0.000000
    5    -1.000000   180.000000     0.500000    -0.866025     0.000000     0.000000     0.000000     0.000000
    6    -1.000000   180.000000    -0.500000    -0.866025     0.000000     0.000000     0.000000     0.000000
    7    -1.000000    60.000000     0.000000     0.000000    -1.000000     0.000000     0.000000     0.240924
    8    -1.000000   179.999999     0.000000     0.000000     1.000000     0.000000     0.000000     0.240924
    9    -1.000000    60.000000     0.000000     0.000000     1.000000     0.000000     0.000001     0.240924
   10     1.000000   180.000000     0.866025    -0.500000     0.000000     0.000000     0.000000     0.240924
   11     1.000000   180.000000     0.000000     1.000000     0.000000     0.000000     0.000000     0.240924
   12     1.000000   180.000000     0.866025     0.500000     0.000000    -0.000000     0.000001     0.240924

 Subroutine IBZKPT returns following result:

 Found     14 irreducible k-points:

 Following reciprocal coordinates:
            Coordinates               Weight
  0.000000  0.000000  0.000000      1.000000
  0.100000 -0.000000  0.000000      6.000000
  0.200000  0.000000  0.000000      6.000000
  0.300000  0.000000  0.000000      6.000000
  0.400000  0.000000  0.000000      6.000000
  0.500000 -0.000000  0.000000      3.000000
  0.100000  0.100000  0.000000      6.000000
  0.200000  0.100000  0.000000     12.000000
  0.300000  0.100000  0.000000     12.000000
  0.400000  0.100000  0.000000     12.000000
  0.200000  0.200000  0.000000      6.000000
  0.300000  0.200000  0.000000     12.000000
  0.400000  0.200000  0.000000      6.000000
  0.300000  0.300000  0.000000      6.000000

 Following cartesian coordinates:
            Coordinates               Weight
  0.000000  0.000000  0.000000      1.000000
  0.031345  0.018097  0.000000      6.000000
  0.062690  0.036194  0.000000      6.000000
  0.094035  0.054291  0.000000      6.000000
  0.125379  0.072388  0.000000      6.000000
  0.156724  0.090485  0.000000      3.000000
  0.031345  0.054291  0.000000      6.000000
  0.062690  0.072388  0.000000     12.000000
  0.094035  0.090485  0.000000     12.000000
  0.125379  0.108582  0.000000     12.000000
  0.062690  0.108582  0.000000      6.000000
  0.094035  0.126679  0.000000     12.000000
  0.125379  0.144776  0.000000      6.000000
  0.094035  0.162873  0.000000      6.000000

 SYSTEM =  unknown system
 POSCAR =  MoS2_mp-2815_computed

 Startparameter for this run:
   NWRITE =      2    write-flag & timer
   PREC   = accura    normal or accurate (medium, high low for compatibility)
   ISTART =      0    job   : 0-new  1-cont  2-samecut
   ICHARG =      2    charge: 1-file 2-atom 10-const
   ISPIN  =      1    spin polarized calculation?
   LNONCOLLINEAR =      F non collinear calculations
   LSORBIT =      F    spin-orbit coupling
   INIWAV =      1    electr: 0-lowe 1-rand  2-diag
   LASPH  =      F    aspherical Exc in radial PAW
   METAGGA=      F    non-selfconsistent MetaGGA calc.

 Electronic Relaxation 1
   ENCUT  =  450.0 eV  33.07 Ry    5.75 a.u.   5.52  5.52 53.41*2*pi/ulx,y,z
   ENINI  =  450.0     initial cutoff
   ENAUG  =  345.3 eV  augmentation charge cutoff
   NELM   =    200;   NELMIN=  4; NELMDL=  0     # of ELM steps
   EDIFF  = 0.1E-05   stopping-criterion for ELM
   LREAL  =      F    real-space projection
   NLSPLINE    = F    spline interpolate recip. space projectors
   LCOMPAT=      F    compatible to vasp.4.4
   GGA_COMPAT  = T    GGA compatible to vasp.4.4-vasp.4.6
   LMAXPAW     = -100 max onsite density
   LMAXMIX     =    2 max onsite mixed and CHGCAR
   VOSKOWN=      0    Vosko Wilk Nusair interpolation
   ROPT   =    0.00000   0.00000
 Ionic relaxation
   EDIFFG = -.1E-01   stopping-criterion for IOM
   NSW    =     50    number of steps for IOM
   NBLOCK =      1;   KBLOCK =     50    inner block; outer block
   IBRION =      1    ionic relax: 0-MD 1-quasi-New 2-CG
   NFREE  =      0    steps in history (QN), initial steepest desc. (CG)
   ISIF   =      3    stress and relaxation
   IWAVPR =     11    prediction:  0-non 1-charg 2-wave 3-comb
   ISYM   =      2    0-nonsym 1-usesym 2-fastsym
   LCORR  =      T    Harris-Foulkes like correction to forces

   POTIM  = 0.5000    time-step for ionic-motion
   TEIN   =    0.0    initial temperature
   TEBEG  =    0.0;   TEEND  =   0.0 temperature during run
   SMASS  =  -3.00    Nose mass-parameter (am)
   estimated Nose-frequenzy (Omega)   =  0.10E-29 period in steps =****** mass=  -0.233E-27a.u.
   SCALEE = 1.0000    scale energy and forces
   NPACO  =    256;   APACO  = 16.0  distance and # of slots for P.C.
   PSTRESS=    0.0 pullay stress

  Mass of Ions in am
   POMASS =  95.94 32.07
  Ionic Valenz
   ZVAL   =   6.00  6.00
  Atomic Wigner-Seitz radii
  virtual crystal weights
   VCA    =   1.00  1.00
   NELECT =      18.0000    total number of electrons
   NUPDOWN=      -1.0000    fix difference up-down

 DOS related values:
   EMIN   =  10.00;   EMAX   =-10.00  energy-range for DOS
   EFERMI =   0.00
   ISMEAR =     0;   SIGMA  =   0.20  broadening in eV -4-tet -1-fermi 0-gaus

 Electronic relaxation 2 (details)
   IALGO  =     38    algorithm
   LDIAG  =      T    sub-space diagonalisation (order eigenvalues)
   LSUBROT=      F    optimize rotation matrix (better conditioning)
   TURBO    =      0    0=normal 1=particle mesh
   IRESTART =      0    0=no restart 2=restart with 2 vectors
   NREBOOT  =      0    no. of reboots
   NMIN     =      0    reboot dimension
   EREF     =   0.00    reference energy to select bands
   IMIX   =      4    mixing-type and parameters
     AMIX     =   0.40;   BMIX     =  1.00
     AMIX_MAG =   1.60;   BMIX_MAG =  1.00
     AMIN     =   0.10
     WC   =   100.;   INIMIX=   1;  MIXPRE=   1;  MAXMIX=  80

 Intra band minimization:
   WEIMIN = 0.0010     energy-eigenvalue tresh-hold
   EBREAK =  0.18E-07  absolut break condition
   DEPER  =   0.30     relativ break condition

   TIME   =   0.40     timestep for ELM

  volume/ion in A,a.u.               =      90.73       612.26
  Fermi-wavevector in a.u.,A,eV,Ry     =   0.662031  1.251058  5.963237  0.438286
  Thomas-Fermi vector in A             =   1.734975

 Write flags
   LWAVE        =      F    write WAVECAR
   LDOWNSAMPLE  =      F    k-point downsampling of WAVECAR
   LCHARG       =      T    write CHGCAR
   LVTOT        =      F    write LOCPOT, total local potential
   LVHAR        =      F    write LOCPOT, Hartree potential only
   LELF         =      F    write electronic localiz. function (ELF)
   LORBIT       =      0    0 simple, 1 ext, 2 COOP (PROOUT), +10 PAW based schemes

 Dipole corrections
   LMONO  =      F    monopole corrections only (constant potential shift)
   LDIPOL =      F    correct potential (dipole corrections)
   IDIPOL =      0    1-x, 2-y, 3-z, 4-all directions
   EPSILON=  1.0000000 bulk dielectric constant

 Exchange correlation treatment:
   GGA     =    --    GGA type
   VOSKOWN=      0    Vosko Wilk Nusair interpolation
   LHFCALC =     F    Hartree Fock is set to
   LHFONE  =     F    Hartree Fock one center treatment
   AEXX    =    0.0000 exact exchange contribution

 Linear response parameters
   LEPSILON=     F    determine dielectric tensor
   LRPA    =     F    only Hartree local field effects (RPA)
   LNABLA  =     F    use nabla operator in PAW spheres
[...]
     3.190315730  0.000000000  0.000000000     0.313448600  0.180969634  0.000000000
    -1.595157865  2.762894468  0.000000000     0.000000000  0.361939267  0.000000000
     0.000000000  0.000000000 30.879004300     0.000000000  0.000000000  0.032384464

  length of vectors
     3.190315730  3.190315730 30.879004300     0.361939267  0.361939267  0.032384464

 k-points in units of 2pi/SCALE and weight: k-density: 5.0
   0.00000000  0.00000000  0.00000000       0.010
   0.03134486  0.01809696  0.00000000       0.060
   0.06268972  0.03619393  0.00000000       0.060
   0.09403458  0.05429089  0.00000000       0.060
   0.12537944  0.07238785  0.00000000       0.060
   0.15672430  0.09048482  0.00000000       0.030
   0.03134486  0.05429089  0.00000000       0.060
   0.06268972  0.07238785  0.00000000       0.120
   0.09403458  0.09048482  0.00000000       0.120
   0.12537944  0.10858178  0.00000000       0.120
   0.06268972  0.10858178  0.00000000       0.060
   0.09403458  0.12667874  0.00000000       0.120
   0.12537944  0.14477571  0.00000000       0.060
   0.09403458  0.16287267  0.00000000       0.060

 k-points in reciprocal lattice and weights: k-density: 5.0
   0.00000000  0.00000000  0.00000000       0.010
   0.10000000 -0.00000000  0.00000000       0.060
   0.20000000  0.00000000  0.00000000       0.060
   0.30000000  0.00000000  0.00000000       0.060
   0.40000000  0.00000000  0.00000000       0.060
   0.50000000 -0.00000000  0.00000000       0.030
   0.10000000  0.10000000  0.00000000       0.060
   0.20000000  0.10000000  0.00000000       0.120
   0.30000000  0.10000000  0.00000000       0.120
   0.40000000  0.10000000  0.00000000       0.120
   0.20000000  0.20000000  0.00000000       0.060
   0.30000000  0.20000000  0.00000000       0.120
   0.40000000  0.20000000  0.00000000       0.060
   0.30000000  0.30000000  0.00000000       0.060

 position of ions in fractional coordinates (direct lattice)
   0.33333300  0.66666700  0.12046214
   0.66666700  0.33333300  0.06978420
   0.66666600  0.33333300  0.17114009

 position of ions in cartesian coordinates  (Angst):
  -0.00000160  1.84193057  3.71975108
   1.59515946  0.92096390  2.15486668
   1.59515627  0.92096390  5.28463547

 k-point  1 :   0.0000 0.0000 0.0000  plane waves:    6011
 k-point  2 :   0.1000-0.0000 0.0000  plane waves:    5995
 k-point  3 :   0.2000 0.0000 0.0000  plane waves:    5925
 k-point  4 :   0.3000 0.0000 0.0000  plane waves:    5898
 k-point  5 :   0.4000 0.0000 0.0000  plane waves:    5878
 k-point  6 :   0.5000-0.0000 0.0000  plane waves:    5816
 k-point  7 :   0.1000 0.1000 0.0000  plane waves:    5967
 k-point  8 :   0.2000 0.1000 0.0000  plane waves:    5915
 k-point  9 :   0.3000 0.1000 0.0000  plane waves:    5903
 k-point 10 :   0.4000 0.1000 0.0000  plane waves:    5860
 k-point 11 :   0.2000 0.2000 0.0000  plane waves:    5903
 k-point 12 :   0.3000 0.2000 0.0000  plane waves:    5872
 k-point 13 :   0.4000 0.2000 0.0000  plane waves:    5866
 k-point 14 :   0.3000 0.3000 0.0000  plane waves:    5886

 maximum and minimum number of plane-waves per node :      3014     2899

 maximum number of plane-waves:      6011
 maximum index in each direction:
   IXMAX=    5   IYMAX=    5   IZMAX=   53
   IXMIN=   -6   IYMIN=   -5   IZMIN=  -53

 parallel 3D FFT for wavefunctions:
    minimum data exchange during FFTs selected (reduces bandwidth)
 parallel 3D FFT for charge:
    minimum data exchange during FFTs selected (reduces bandwidth)

 Broyden mixing: mesh for mixing (old mesh)
   NGX = 11   NGY = 11   NGZ =107
  (NGX  = 48   NGY  = 48   NGZ  =432)
  gives a total of  12947 points

 initial charge density was supplied:
 charge density of overlapping atoms calculated
 number of electron      18.0000000 magnetization
 keeping initial charge density in first step

 Maximum index for augmentation-charges         7135 (set IRDMAX)

 First call to EWALD:  gamma=   0.273
 Maximum number of real-space cells 6x 6x 1
 Maximum number of reciprocal cells 2x 2x11

--------------------------------------- Iteration      1(   1)  ---------------------------------------

 eigenvalue-minimisations  :   392
 total energy-change (2. order) : 0.1386151E+03  (-0.5409387E+03)
 number of electron      18.0000000 magnetization
 augmentation part       18.0000000 magnetization

 Free energy of the ion-electron system (eV)
  alpha Z        PSCENC =        10.89288288
  Ewald energy   TEWEN  =      5368.65661653
  -Hartree energ DENC   =     -6042.21104469
  -exchange      EXHF   =         0.00000000
  -V(xc)+E(xc)   XCENC  =       -36.31053628
  PAW double counting   =       406.88651198     -329.34073203
  entropy T*S    EENTRO =        -0.04690563
  eigenvalues    EBANDS =       -11.06684353
  atomic energy  EATOM  =       771.15511399
  Solvation  Ediel_sol  =         0.00000000
  free energy    TOTEN  =       138.61506323 eV

  energy without entropy =      138.66196885  energy(sigma->0) =      138.63851604

[...]

 eigenvalue-minimisations  :   694
 total energy-change (2. order) :-0.1446895E+03  (-0.1371084E+03)
 number of electron      18.0000000 magnetization
 augmentation part       18.0000000 magnetization

[...]

 Broyden mixing:
  rms(total) = 0.68865E+00    rms(broyden)= 0.68864E+00
  rms(prec ) = 0.73246E+00
  weight for this iteration     100.00

[...]

 eigenvalues of (default mixing * dielectric matrix)
  average eigenvalue GAMMA=   0.7937
  0.7937

[...]

 average (electrostatic) potential at core
  the test charge radii are     1.2296  0.9698
  (the norm of the test charge is              1.0000)
       1 -47.1995       2 -95.0385       3 -95.0385

 E-fermi :  -2.9185     XC(G=0):  -2.4847     alpha+bet : -2.3217

 k-point     1 :       0.0000    0.0000    0.0000
  band No.  band energies     occupation
      1     -17.7878      2.00000
      2     -16.5797      2.00000
      3      -9.3081      2.00000
      4      -6.3473      2.00000
      5      -6.3473      2.00000
      6      -5.4861      2.00000
      7      -5.2417      2.00000
      8      -5.2416      2.00000
      9      -3.7658      2.00000
     10      -0.9942      0.00000
     11      -0.9941      0.00000
     12      -0.7704      0.00000
     13      -0.7704      0.00000
     14       1.6579      0.00000

[...]

 soft charge-density along one line, spin component           1
         0         1         2         3         4         5         6         7         8         9
 total charge-density along one line

------------------------ aborting loop because EDIFF is reached ----------------------------------------

  DFT-D2 method for vdW energy calculation

  Parameters of vdW forcefield:
         C6(Jnm^6/mol)     R0(A)
   Mo      24.670          1.639
   S        5.570          1.683

  IVDW =   1
  VDW_RADIUS =    50.000 A
  VDW_S6 =     0.750
  VDW_SR =     1.000
  VDW_D =    20.000
  LVDW_EWALD = F

  Number of pair interactions contributing to vdW energy:   11979
  Edisp (eV):   -0.59080

  FORCE on cell =-STRESS in cart. coord.  units (eV):
  Direction    XX          YY          ZZ          XY          YZ          ZX
  Alpha Z    10.89288    10.89288    10.89288
  Ewald    5935.52296  5935.52341 -6502.38985     0.00019     0.00000     0.00012
  Hartree  6017.36881  6017.36882 -5979.09731     0.00002    -0.00000    -0.00000
  E(xc)     -70.29680   -70.29681   -70.90192    -0.00000     0.00000    -0.00000
  Local  -12231.98890-12231.98917 12196.42627    -0.00016    -0.00000    -0.00006
  n-local   127.20803   125.74031   131.68156    -0.25962    -0.00000    -0.00001
  augment   -25.56511   -25.56510   -26.66715     0.00002     0.00000    -0.00000
  Kinetic   236.12876   238.45003   239.80640    -7.46495     0.00001     0.00002
  Fock        0.00000     0.00000     0.00000     0.00000     0.00000     0.00000
  vdW         0.16052     0.16052    -0.13380     0.00000     0.00000    -0.00000
  Total      -0.14198    -0.14198    -0.38292     0.00000     0.00000     0.00000
  in kB      -0.83576    -0.83576    -2.25400     0.00000     0.00000     0.00000

 VOLUME and BASIS-vectors are now :
  energy-cutoff  :      450.00
  volume of cell :      272.18
      direct lattice vectors                 reciprocal lattice vectors
     3.190315730  0.000000000  0.000000000     0.313448600  0.180969634  0.000000000
    -1.595157865  2.762894468  0.000000000     0.000000000  0.361939267  0.000000000
     0.000000000  0.000000000 30.879004300     0.000000000  0.000000000  0.032384464

[...]

 FORCES acting on ions
    electron-ion (+dipol)            ewald-force                    non-local-force                 convergence-correction
   -.942E-05 -.178E-05 0.121E-05   0.931E-04 -.108E-03 0.343E-06   0.451E-16 0.208E-16 0.212E-21   -.402E-10 -.139E-10 -.838E-08
   -.853E-03 0.494E-03 0.596E+03   -.864E-04 0.538E-04 -.601E+03   0.382E-16 0.520E-17 0.480E+01   0.605E-09 -.209E-09 -.101E-04
   0.865E-03 0.494E-03 -.596E+03   -.674E-05 0.538E-04 0.601E+03   0.694E-17 0.347E-17 -.480E+01   -.447E-09 -.208E-09 0.101E-04
   0.210E-05 0.986E-03 0.391E-04   0.253E-13 0.199E-13 0.000E+00   0.902E-16 0.295E-16 -.888E-15   0.118E-09 -.431E-09 -.223E-07

 POSITION                                       TOTAL-FORCE (eV/Angst)
     -0.00000      1.84193      3.71975        -0.000000      0.000000     -0.000000
      1.59516      0.92096      2.15487         0.000000     -0.000000      0.115110
      1.59516      0.92096      5.28464         0.000000     -0.000000     -0.115110
    total drift:                                0.000002      0.000986      0.000039

  FREE ENERGIE OF THE ION-ELECTRON SYSTEM (eV)
  free  energy   TOTEN  =       -22.38761799 eV

  energy  without entropy=      -22.38761799  energy(sigma->0) =      -22.38761799

 Quasi-Newton relaxation of ions (Broydens 2nd method)
  g(Force)  = 0.128E-02   g(Stress)= 0.301E-02

 Reset! Starting new Quasi-Newton update for ions

[...]

 d Force =-0.5866110E-03[-0.244E-02, 0.127E-02]  d Energy =-0.2016799E-02 0.143E-02
 d Force =-0.6643255E+01[-0.666E+01,-0.663E+01]  d Ewald  = 0.6368124E+01-0.130E+02

[...]

 retain information from N=  1 steps
 eigenvalues of (default step * inverse Hessian matrix)
  average eigenvalue of G=   0.3668
 eigenvalue spectrum of G is  0.3668

[...]

 d Force = 0.7805636E-03[-0.180E-03, 0.174E-02]  d Energy = 0.2752796E-02-0.197E-02
 d Force = 0.4731300E+01[ 0.472E+01, 0.474E+01]  d Ewald  = 0.9291030E+01-0.456E+01

[...]

 eigenvalue-minimisations  :   402
 total energy-change (2. order) : 0.1221574E-06  (-0.2960684E-06)
 number of electron      18.0000005 magnetization
 augmentation part       -0.5496360 magnetization

 Broyden mixing:
  rms(total) = 0.41023E-03    rms(broyden)= 0.41023E-03
  rms(prec ) = 0.42305E-03
  weight for this iteration     100.00

 eigenvalues of (default mixing * dielectric matrix)
  average eigenvalue GAMMA=   2.1201
  8.2507  8.2507  5.5063  4.2315  3.2739  3.2739  2.8604  2.1373  2.1373  2.6730
  2.5174  2.3556  2.3556  0.3714  2.0349  2.0349  1.9812  1.9113  1.2445  1.2445
  0.7678  0.7678  0.7602  1.2460  1.1570  1.1570  0.9678  0.9678  1.0263  1.0263
  1.0210  1.0210  1.0087  0.9104  0.9356  0.9356

[...]

--------------------------------------- Iteration      4(   4)  ---------------------------------------

 eigenvalue-minimisations  :   316
 total energy-change (2. order) :-0.2256309E-06  (-0.1421059E-06)
 number of electron      18.0000005 magnetization
 augmentation part       -0.5496360 magnetization

 Free energy of the ion-electron system (eV)
  alpha Z        PSCENC =        10.92610231
  Ewald energy   TEWEN  =      5354.53473861
  -Hartree energ DENC   =     -6041.38303993
  -exchange      EXHF   =         0.00000000
  -V(xc)+E(xc)   XCENC  =       -35.17117682
  PAW double counting   =       473.40103926     -397.60967979
  entropy T*S    EENTRO =        -0.00000000
  eigenvalues    EBANDS =      -157.65023697
  atomic energy  EATOM  =       771.15511399
  Solvation  Ediel_sol  =         0.00000000
  free energy    TOTEN  =       -21.79713934 eV

  energy without entropy =      -21.79713934  energy(sigma->0) =      -21.79713934

 average (electrostatic) potential at core
  the test charge radii are     1.2296  0.9698
  (the norm of the test charge is              1.0000)
       1 -47.1900       2 -95.0377       3 -95.0377

 E-fermi :  -2.9205     XC(G=0):  -2.4853     alpha+bet : -2.3288

[...]

 k-point    14 :       0.3000    0.3000    0.0000
  band No.  band energies     occupation
      1     -15.8104      2.00000
      2     -15.6233      2.00000
      3      -9.0438      2.00000
      4      -8.5432      2.00000
      5      -7.5497      2.00000
      6      -7.2278      2.00000
      7      -6.7136      2.00000
      8      -5.7676      2.00000
      9      -3.8875      2.00000
     10      -1.9852      0.00000
     11      -0.6680      0.00000
     12      -0.4022      0.00000
     13       1.0134      0.00000
     14       3.4395      0.00000

 soft charge-density along one line, spin component           1
         0         1         2         3         4         5         6         7         8         9
 total charge-density along one line

------------------------ aborting loop because EDIFF is reached ----------------------------------------

  Number of pair interactions contributing to vdW energy:   12009
  Edisp (eV):   -0.59127

  FORCE on cell =-STRESS in cart. coord.  units (eV):
  Direction    XX          YY          ZZ          XY          YZ          ZX
  Alpha Z    10.92610    10.92610    10.92610
  Ewald    5921.93836  5921.93880 -6489.34278     0.00019     0.00000     0.00013
  Hartree  6003.13786  6003.13786 -5964.87851     0.00002    -0.00000    -0.00000
  E(xc)     -70.35089   -70.35089   -70.96332    -0.00000     0.00000    -0.00000
  Local  -12204.20363-12204.20391 12169.00721    -0.00016    -0.00000    -0.00006
  n-local   127.33267   125.86804   131.81761    -0.24288    -0.00000    -0.00001
  augment   -25.56089   -25.56088   -26.67499     0.00001     0.00000    -0.00000
  Kinetic   236.22087   238.48307   240.22866    -7.46806     0.00001     0.00002
  Fock        0.00000     0.00000     0.00000     0.00000     0.00000     0.00000
  vdW         0.15762     0.15762    -0.13635     0.00000     0.00000    -0.00000
  Total      -0.00305    -0.00305    -0.01636     0.00000     0.00000     0.00000
  in kB      -0.01804    -0.01804    -0.09660     0.00000     0.00000     0.00000

 VOLUME and BASIS-vectors are now :
  energy-cutoff  :      450.00
  volume of cell :      271.36
      direct lattice vectors                 reciprocal lattice vectors
     3.189856830 -0.000000000  0.000000000     0.313493694  0.180995668  0.000000000
    -1.594928415  2.762497050  0.000000000     0.000000000  0.361991337  0.000000000
    -0.000000000  0.000000000 30.793978868     0.000000000  0.000000000  0.032473881

  length of vectors
     3.189856830  3.189856830 30.793978868     0.361991337  0.361991337  0.032473881

 FORCES acting on ions
    electron-ion (+dipol)            ewald-force                    non-local-force                 convergence-correction
   -.103E-04 -.137E-05 0.109E-05   0.942E-04 -.109E-03 0.348E-06   -.590E-16 0.694E-17 0.000E+00   0.346E-08 -.108E-07 -.337E-06
   -.853E-03 0.494E-03 0.596E+03   -.873E-04 0.544E-04 -.601E+03   -.520E-17 -.347E-17 0.472E+01   -.335E-07 0.224E-07 -.875E-03
   0.864E-03 0.494E-03 -.596E+03   -.692E-05 0.544E-04 0.601E+03   -.217E-16 0.347E-17 -.472E+01   0.164E-07 0.224E-07 0.874E-03
   0.143E-05 0.986E-03 0.390E-04   0.592E-14 -.327E-14 -.114E-12   -.859E-16 0.694E-17 0.888E-15   -.136E-07 0.339E-07 -.895E-06

 POSITION                                       TOTAL-FORCE (eV/Angst)
     -0.00000      1.84167      3.70951        -0.000000      0.000000      0.000000
      1.59493      0.92083      2.15067         0.000000     -0.000000     -0.001695
      1.59493      0.92083      5.26835         0.000000     -0.000000      0.001695
    total drift:                                0.000001      0.000986      0.000038

  FREE ENERGIE OF THE ION-ELECTRON SYSTEM (eV)
  free  energy   TOTEN  =       -22.38841376 eV

  energy  without entropy=      -22.38841376  energy(sigma->0) =      -22.38841376

 d Force = 0.2637287E-05[-0.422E-06, 0.570E-05]  d Energy = 0.5977491E-04-0.571E-04
 d Force =-0.1494181E+00[-0.149E+00,-0.149E+00]  d Ewald  =-0.1537276E+01 0.139E+01

 Quasi-Newton relaxation of ions (Broydens 2nd method)
  g(Force)  = 0.277E-06   g(Stress)= 0.460E-05

 retain information from N=  1 steps
 eigenvalues of (default step * inverse Hessian matrix)
  average eigenvalue of G=   0.3890
 eigenvalue spectrum of G is  0.3890

 reached required accuracy - stopping structural energy minimisation