 vasp.5.4.4.18Apr17-6-g9f103f2a35 (build Jun 30 2017 11:15:00) complex

 executed on    STALLO_VASP_5.4.4 date 2019.11.03  20:39:30

 INCAR:
 POTCAR:   PAW_PBE Mo 08Apr2002
 POTCAR:    PAW_PBE S 17Jan2003
 POTCAR:   PAW_PBE Mo 08Apr2002
   VRHFIN =Mo: 4p5s4d

   TITEL  = PAW_PBE Mo 08Apr2002
   POMASS =   95.940; ZVAL   =    6.000    mass and valenz
   ENMAX  =  224.584; ENMIN  =  168.438 eV
   QCUT   =   -4.063; QGAM   =    8.126    optimization parameters

   Description
     l     E      TYP  RCUT    TYP  RCUT
     2   .000     23  2.500
     2   .000     23  2.500
     0   .000     23  2.600
     0  1.000     23  2.600
     1   .400     23  2.750
     1  2.000     23  2.750
     3   .000      7   .000

 POTCAR:    PAW_PBE S 17Jan2003
   VRHFIN =S : s2p4

   TITEL  = PAW_PBE S 17Jan2003
   POMASS =   32.066; ZVAL   =    6.000    mass and valenz
   ENMAX  =  280.000; ENMIN  =  194.016 eV
   QCUT   =   -4.360; QGAM   =    8.721    optimization parameters

   Description
     l     E      TYP  RCUT    TYP  RCUT
     0   .000     23  1.900
     0   .000     23  1.900
     1   .000     23  1.900
     1   .000     23  1.900
     2   .000     23  1.900

 PAW_PBE Mo 08Apr2002                   :
  PAW_PBE S 17Jan2003                   :

 POSCAR: MoS2_mp-2815_computed
  positions in direct lattice
  velocities in cartesian coordinates
 exchange correlation table for  LEXCH =        8
   RHO(1)=    0.500       N(1)  =     2000
   RHO(2)=  100.500       N(2)  =     4000

 ion  position               nearest neighbor table
   1  0.333  0.667  0.150-   5 2.41   5 2.41   5 2.41   4 2.41   4 2.41   4 2.41
   2  0.667  0.333  0.850-   6 2.41   6 2.41   6 2.41   3 2.41   3 2.41   3 2.41
   3  0.333  0.667  0.913-   2 2.41   2 2.41   2 2.41
   4  0.667  0.333  0.087-   1 2.41   1 2.41   1 2.41
   5  0.667  0.333  0.212-   1 2.41   1 2.41   1 2.41
   6  0.333  0.667  0.788-   2 2.41   2 2.41   2 2.41

  LATTYP: Found a hexagonal cell.
 ALAT       =     3.1833971160
 C/A-ratio  =     7.8107082174

  Lattice vectors:

 A1 = (   3.1833971160,   0.0000000000,   0.0000000000)
 A2 = (  -1.5916985580,   2.7569027728,   0.0000000000)
 A3 = (   0.0000000000,   0.0000000000,  24.8645860136)

Analysis of symmetry for initial positions (statically):
 Subroutine PRICEL returns:
 Original cell was already a primitive cell.

 Routine SETGRP: Setting up the symmetry group for a
 hexagonal supercell.

 Subroutine GETGRP returns: Found 12 space group operations
 (whereof 12 operations were pure point group operations)
 out of a pool of 24 trial point group operations.

The static configuration has the point symmetry D_3d.

Analysis of symmetry for dynamics (positions and initial velocities):
 Subroutine PRICEL returns:
 Original cell was already a primitive cell.

 Routine SETGRP: Setting up the symmetry group for a
 hexagonal supercell.

 Subroutine GETGRP returns: Found 12 space group operations
 (whereof 12 operations were pure point group operations)
 out of a pool of 24 trial point group operations.

The dynamic configuration has the point symmetry D_3d.

 Subroutine INISYM returns: Found 12 space group operations
 (whereof 12 operations are pure point group operations),
 and found     1 'primitive' translations

 KPOINTS: k-density: 5.0

Automatic generation of k-mesh.
Space group operators:
 irot       det(A)        alpha          n_x          n_y          n_z        tau_x        tau_y        tau_z
    1     1.000000     0.000000     1.000000     0.000000     0.000000     0.000000     0.000000     0.000000
    2    -1.000000     0.000000     1.000000     0.000000     0.000000     0.000000     0.000000     0.000000
    3     1.000000   120.000000     0.000000     0.000000    -1.000000     0.000000     0.000000     0.000000
    4    -1.000000   120.000000     0.000000     0.000000    -1.000000     0.000000     0.000000     0.000000
    5     1.000000   120.000000     0.000000     0.000000     1.000000     0.000000     0.000000     0.000000
    6    -1.000000   120.000000     0.000000     0.000000     1.000000     0.000000     0.000000     0.000000
    7     1.000000   180.000000     1.000000    -0.000000     0.000000     0.000000     0.000000     0.000000
    8    -1.000000   180.000000     1.000000    -0.000000     0.000000     0.000000     0.000000     0.000000
    9     1.000000   180.000000     0.500000    -0.866025     0.000000     0.000000     0.000000     0.000000
   10    -1.000000   180.000000     0.500000    -0.866025     0.000000     0.000000     0.000000     0.000000
   11     1.000000   180.000000    -0.500000    -0.866025     0.000000     0.000000     0.000000     0.000000
   12    -1.000000   180.000000    -0.500000    -0.866025     0.000000     0.000000     0.000000     0.000000

 Subroutine IBZKPT returns following result:

 Found     14 irreducible k-points:

 Following reciprocal coordinates:
            Coordinates               Weight
  0.000000  0.000000  0.000000      1.000000
  0.100000 -0.000000  0.000000      6.000000
  0.200000  0.000000  0.000000      6.000000
  0.300000  0.000000  0.000000      6.000000
  0.400000  0.000000  0.000000      6.000000
  0.500000 -0.000000  0.000000      3.000000
  0.100000  0.100000  0.000000      6.000000
  0.200000  0.100000  0.000000     12.000000
  0.300000  0.100000  0.000000     12.000000
  0.400000  0.100000  0.000000     12.000000
  0.200000  0.200000  0.000000      6.000000
  0.300000  0.200000  0.000000     12.000000
  0.400000  0.200000  0.000000      6.000000
  0.300000  0.300000  0.000000      6.000000

 Following cartesian coordinates:
            Coordinates               Weight
  0.000000  0.000000  0.000000      1.000000
  0.031413  0.018136  0.000000      6.000000
  0.062826  0.036273  0.000000      6.000000
  0.094239  0.054409  0.000000      6.000000
  0.125652  0.072545  0.000000      6.000000
  0.157065  0.090681  0.000000      3.000000
  0.031413  0.054409  0.000000      6.000000
  0.062826  0.072545  0.000000     12.000000
  0.094239  0.090681  0.000000     12.000000
  0.125652  0.108818  0.000000     12.000000
  0.062826  0.108818  0.000000      6.000000
  0.094239  0.126954  0.000000     12.000000
  0.125652  0.145090  0.000000      6.000000
  0.094239  0.163227  0.000000      6.000000

 TETIRR: Found     55 inequivalent tetrahedra from      600

 Subroutine IBZKPT_HF returns following result:

 Found    100 k-points in 1st BZ
 the following    100 k-points will be used (e.g. in the exchange kernel)
 Following reciprocal coordinates:   # in IRBZ
  0.000000  0.000000  0.000000    0.01000000   1 t-inv F
  0.100000 -0.000000  0.000000    0.01000000   2 t-inv F
  0.200000  0.000000  0.000000    0.01000000   3 t-inv F
  0.300000  0.000000  0.000000    0.01000000   4 t-inv F
  0.400000  0.000000  0.000000    0.01000000   5 t-inv F
  0.500000 -0.000000  0.000000    0.01000000   6 t-inv F
  0.100000  0.100000  0.000000    0.01000000   7 t-inv F
  0.200000  0.100000  0.000000    0.01000000   8 t-inv F
  0.300000  0.100000  0.000000    0.01000000   9 t-inv F
  0.400000  0.100000  0.000000    0.01000000  10 t-inv F
  0.200000  0.200000  0.000000    0.01000000  11 t-inv F
  0.300000  0.200000  0.000000    0.01000000  12 t-inv F
  0.400000  0.200000  0.000000    0.01000000  13 t-inv F
  0.300000  0.300000  0.000000    0.01000000  14 t-inv F
 -0.100000  0.000000  0.000000    0.01000000   2 t-inv F
 -0.100000  0.100000  0.000000    0.01000000   2 t-inv F
  0.100000 -0.100000  0.000000    0.01000000   2 t-inv F
 -0.000000 -0.100000  0.000000    0.01000000   2 t-inv F
  0.000000  0.100000  0.000000    0.01000000   2 t-inv F
 -0.200000 -0.000000  0.000000    0.01000000   3 t-inv F
 -0.200000  0.200000  0.000000    0.01000000   3 t-inv F
  0.200000 -0.200000  0.000000    0.01000000   3 t-inv F
  0.000000 -0.200000  0.000000    0.01000000   3 t-inv F
 -0.000000  0.200000  0.000000    0.01000000   3 t-inv F
 -0.300000  0.000000  0.000000    0.01000000   4 t-inv F
 -0.300000  0.300000  0.000000    0.01000000   4 t-inv F
  0.300000 -0.300000  0.000000    0.01000000   4 t-inv F
  0.000000 -0.300000  0.000000    0.01000000   4 t-inv F
  0.000000  0.300000  0.000000    0.01000000   4 t-inv F
 -0.400000 -0.000000  0.000000    0.01000000   5 t-inv F
 -0.400000  0.400000  0.000000    0.01000000   5 t-inv F
  0.400000 -0.400000  0.000000    0.01000000   5 t-inv F
  0.000000 -0.400000  0.000000    0.01000000   5 t-inv F
 -0.000000  0.400000  0.000000    0.01000000   5 t-inv F
 -0.500000  0.500000  0.000000    0.01000000   6 t-inv F
 -0.000000 -0.500000  0.000000    0.01000000   6 t-inv F
 -0.100000 -0.100000  0.000000    0.01000000   7 t-inv F
 -0.200000  0.100000  0.000000    0.01000000   7 t-inv F
  0.200000 -0.100000  0.000000    0.01000000   7 t-inv F
  0.100000 -0.200000  0.000000    0.01000000   7 t-inv F
 -0.100000  0.200000  0.000000    0.01000000   7 t-inv F
 -0.200000 -0.100000  0.000000    0.01000000   8 t-inv F
 -0.300000  0.200000  0.000000    0.01000000   8 t-inv F
  0.300000 -0.200000  0.000000    0.01000000   8 t-inv F
  0.100000 -0.300000  0.000000    0.01000000   8 t-inv F
 -0.100000  0.300000  0.000000    0.01000000   8 t-inv F
  0.200000 -0.300000  0.000000    0.01000000   8 t-inv F
 -0.200000  0.300000  0.000000    0.01000000   8 t-inv F
 -0.300000  0.100000  0.000000    0.01000000   8 t-inv F
  0.300000 -0.100000  0.000000    0.01000000   8 t-inv F
  0.100000  0.200000  0.000000    0.01000000   8 t-inv F
 -0.100000 -0.200000  0.000000    0.01000000   8 t-inv F
 -0.300000 -0.100000  0.000000    0.01000000   9 t-inv F
 -0.400000  0.300000  0.000000    0.01000000   9 t-inv F
  0.400000 -0.300000  0.000000    0.01000000   9 t-inv F
  0.100000 -0.400000  0.000000    0.01000000   9 t-inv F
 -0.100000  0.400000  0.000000    0.01000000   9 t-inv F
  0.300000 -0.400000  0.000000    0.01000000   9 t-inv F
 -0.300000  0.400000  0.000000    0.01000000   9 t-inv F
 -0.400000  0.100000  0.000000    0.01000000   9 t-inv F
[...]
 -0.300000  0.500000  0.000000    0.01000000  12 t-inv F
 -0.500000  0.200000  0.000000    0.01000000  12 t-inv F
  0.500000 -0.200000  0.000000    0.01000000  12 t-inv F
  0.200000  0.300000  0.000000    0.01000000  12 t-inv F
 -0.200000 -0.300000  0.000000    0.01000000  12 t-inv F
 -0.400000 -0.200000  0.000000    0.01000000  13 t-inv F
 -0.600000  0.400000  0.000000    0.01000000  13 t-inv F
  0.600000 -0.400000  0.000000    0.01000000  13 t-inv F
  0.200000 -0.600000  0.000000    0.01000000  13 t-inv F
 -0.200000  0.600000  0.000000    0.01000000  13 t-inv F
 -0.300000 -0.300000  0.000000    0.01000000  14 t-inv F
 -0.600000  0.300000  0.000000    0.01000000  14 t-inv F
  0.600000 -0.300000  0.000000    0.01000000  14 t-inv F
  0.300000 -0.600000  0.000000    0.01000000  14 t-inv F
 -0.300000  0.600000  0.000000    0.01000000  14 t-inv F

 SYSTEM =  unknown system
 POSCAR =  MoS2_mp-2815_computed

 Startparameter for this run:
   NWRITE =      2    write-flag & timer
   PREC   = accura    normal or accurate (medium, high low for compatibility)
   ISTART =      0    job   : 0-new  1-cont  2-samecut
   ICHARG =      2    charge: 1-file 2-atom 10-const
   ISPIN  =      1    spin polarized calculation?
[...]
   NMAXFOCKAE=   1    number of basis functions for all-electron charge restoration
   LFOCKAEDFT=     F  apply the AE augmentation even for DFT
   NKREDX  =     1    reduce k-point grid by
   NKREDY  =     1    reduce k-point grid by
   NKREDZ  =     1    reduce k-point grid by
   SHIFTRED=     F    shift reduced grid of Gamma
   HFKIDENT=     F    idential grid for each k-point
   ODDONLY =     F    use only odd q-grid points
   EVENONLY=     F    use only even q-grid points
   HFALPHA =   -1.0000 decay constant for conv. correction
   MCALPHA =    0.0000 extent of test-charge in conv. correction in multipole expansion
   AEXX    =    0.2500 exact exchange contribution
   HFSCREEN=    0.2000 screening length (either q_TF or 0.3 A-1)
   HFSCREENC=   0.2000 screening length for correlation (either q_TF or 0.3 A-1)
   HFRCUT  =    0.0000 spherical cutoff for potential kernel
   ALDAX   =    0.7500 LDA exchange part
   AGGAX   =    0.7500 GGA exchange part
   ALDAC   =    1.0000 LDA correlation
   AGGAC   =    1.0000 GGA correlation
   ENCUTFOCK=  -1.0 apply spherical cutoff to Coloumb kernel
   NBANDSGWLOW=     1    first orbital included in HF term
   NBLOCK_FOCK=    64    blocking factor in FOCK_ACC
 Linear response parameters
   LEPSILON=     F    determine dielectric tensor
   LRPA    =     F    only Hartree local field effects (RPA)
   LNABLA  =     F    use nabla operator in PAW spheres
   LVEL    =     F    velocity operator in full k-point grid
   LINTERFAST=   F  fast interpolation
   KINTER  =     0    interpolate to denser k-point grid
   CSHIFT  =0.1000    complex shift for real part using Kramers Kronig
   OMEGAMAX=  -1.0    maximum frequency
   DEG_THRESHOLD= 0.2000000E-02 threshold for treating states as degnerate
   RTIME   =   -0.100 relaxation time in fs
  (WPLASMAI=    0.000 imaginary part of plasma frequency in eV, 0.658/RTIME)
   DFIELD  = 0.0000000 0.0000000 0.0000000 field for delta impulse in time

 Orbital magnetization related:
   ORBITALMAG=     F  switch on orbital magnetization
   LCHIMAG   =     F  perturbation theory with respect to B field
   DQ        =  0.001000  dq finite difference perturbation B field
   LLRAUG    =     F  two centre corrections for induced B field

 Static calculation
 charge density and potential will be updated during run
 non-spin polarized calculation
 Conjugate gradient for all bands (Freysoldt, et al. PRB 79, 241103 (2009))
 perform sub-space diagonalisation
    before iterative eigenvector-optimisation
 modified Broyden-mixing scheme, WC =      100.0
 initial mixing is a Kerker type mixing with AMIX =  0.4000 and BMIX =      1.0000
 Hartree-type preconditioning will be used
 using additional bands            6
 reciprocal scheme for non local part
 use partial core corrections
 no Harris-corrections to forces
 use gradient corrections
 use of overlap-Matrix (Vanderbilt PP)
 Fermi weights with tetrahedron method with Bloechl corrections

  energy-cutoff  :      650.00
  volume of cell :      218.22
      direct lattice vectors                 reciprocal lattice vectors
     3.183397116  0.000000000  0.000000000     0.314129832  0.181362943  0.000000000
    -1.591698558  2.756902773  0.000000000     0.000000000  0.362725886  0.000000000
     0.000000000  0.000000000 24.864586014     0.000000000  0.000000000  0.040217842

  length of vectors
     3.183397116  3.183397116 24.864586014     0.362725886  0.362725886  0.040217842

 k-points in units of 2pi/SCALE and weight: k-density: 5.0
   0.00000000  0.00000000  0.00000000       0.010
   0.03141298  0.01813629  0.00000000       0.060
   0.06282597  0.03627259  0.00000000       0.060
   0.09423895  0.05440888  0.00000000       0.060
   0.12565193  0.07254518  0.00000000       0.060
   0.15706492  0.09068147  0.00000000       0.030
   0.03141298  0.05440888  0.00000000       0.060
   0.06282597  0.07254518  0.00000000       0.120
   0.09423895  0.09068147  0.00000000       0.120
   0.12565193  0.10881777  0.00000000       0.120
   0.06282597  0.10881777  0.00000000       0.060
   0.09423895  0.12695406  0.00000000       0.120
   0.12565193  0.14509035  0.00000000       0.060
   0.09423895  0.16322665  0.00000000       0.060

 k-points in reciprocal lattice and weights: k-density: 5.0
   0.00000000  0.00000000  0.00000000       0.010
   0.10000000 -0.00000000  0.00000000       0.060
   0.20000000  0.00000000  0.00000000       0.060
   0.30000000  0.00000000  0.00000000       0.060
   0.40000000  0.00000000  0.00000000       0.060
   0.50000000 -0.00000000  0.00000000       0.030
   0.10000000  0.10000000  0.00000000       0.060
   0.20000000  0.10000000  0.00000000       0.120
   0.30000000  0.10000000  0.00000000       0.120
   0.40000000  0.10000000  0.00000000       0.120
   0.20000000  0.20000000  0.00000000       0.060
   0.30000000  0.20000000  0.00000000       0.120
   0.40000000  0.20000000  0.00000000       0.060
   0.30000000  0.30000000  0.00000000       0.060

 position of ions in fractional coordinates (direct lattice)
   0.33333300  0.66666700  0.14951355
   0.66666700  0.33333300  0.85048645
   0.33333300  0.66666700  0.91337155
   0.66666700  0.33333300  0.08662845
   0.66666600  0.33333300  0.21239664
   0.33333400  0.66666700  0.78760336

 position of ions in cartesian coordinates  (Angst):
  -0.00000160  1.83793610  3.71759263
   1.59170015  0.91896667 21.14699340
  -0.00000160  1.83793610 22.71060540
   1.59170015  0.91896667  2.15398061
   1.59169697  0.91896667  5.28115462
   0.00000160  1.83793610 19.58343139

 k-point  1 :   0.0000 0.0000 0.0000  plane waves:    8323
 k-point  2 :   0.1000-0.0000 0.0000  plane waves:    8287
 k-point  3 :   0.2000 0.0000 0.0000  plane waves:    8245
 k-point  4 :   0.3000 0.0000 0.0000  plane waves:    8212
 k-point  5 :   0.4000 0.0000 0.0000  plane waves:    8192
 k-point  6 :   0.5000-0.0000 0.0000  plane waves:    8174
 k-point  7 :   0.1000 0.1000 0.0000  plane waves:    8251
 k-point  8 :   0.2000 0.1000 0.0000  plane waves:    8203
 k-point  9 :   0.3000 0.1000 0.0000  plane waves:    8191
 k-point 10 :   0.4000 0.1000 0.0000  plane waves:    8184
 k-point 11 :   0.2000 0.2000 0.0000  plane waves:    8207
 k-point 12 :   0.3000 0.2000 0.0000  plane waves:    8215
 k-point 13 :   0.4000 0.2000 0.0000  plane waves:    8188
 k-point 14 :   0.3000 0.3000 0.0000  plane waves:    8189

 maximum and minimum number of plane-waves per node :      2091     2034

 maximum number of plane-waves:      8323
 maximum index in each direction:
   IXMAX=    6   IYMAX=    6   IZMAX=   51
   IXMIN=   -7   IYMIN=   -6   IZMIN=  -51

 parallel 3D FFT for wavefunctions:
    minimum data exchange during FFTs selected (reduces bandwidth)
 parallel 3D FFT for charge:
    minimum data exchange during FFTs selected (reduces bandwidth)

 FFT grid for exact exchange (Hartree Fock)
  NGX = 20; NGY = 20; NGZ =160

 Radii for the augmentation spheres in the non-local exchange
 for species   1 augmentation radius   1.490 (default was   1.230)
       energy cutoff for augmentation   2600.0
 for species   2 augmentation radius   1.034 (default was   0.970)
       energy cutoff for augmentation   2600.0

 real space projection operators:
  max/ min on nodes  :        495.95        491.02

 Maximum index for augmentation-charges in exchange         1018
  SETUP_FOCK is finished

 Broyden mixing: mesh for mixing (old mesh)
   NGX = 13   NGY = 13   NGZ =103
  (NGX  = 56   NGY  = 56   NGZ  =420)
  gives a total of  17407 points

 initial charge density was supplied:
 charge density of overlapping atoms calculated
 number of electron      36.0000000 magnetization
 charge density for first step will be calculated from the start-wavefunctions

 BZINTS: Fermi energy: 40.250468; 36.000000 electrons
         Band energy: 840.962721;  BLOECHL correction:-16.597834
 Maximum index for augmentation-charges         3508 (set IRDMAX)

 First call to EWALD:  gamma=   0.294
 Maximum number of real-space cells 5x 5x 1
 Maximum number of reciprocal cells 2x 2x10

--------------------------------------- Iteration      1(   1)  ---------------------------------------

 BZINTS: Fermi energy: 21.182844; 36.000000 electrons
         Band energy: 348.079726;  BLOECHL correction: -0.344536
 BZINTS: Fermi energy: 21.182844; 36.000000 electrons
         Band energy: 348.079726;  BLOECHL correction: -0.344536

 eigenvalue-minimisations  :   968
 total energy-change (2. order) : 0.4851650E+03  (-0.1453338E+04)
 number of electron      36.0000000 magnetization
 augmentation part       36.0000000 magnetization

 Free energy of the ion-electron system (eV)
  alpha Z        PSCENC =        54.34637412
  Ewald energy   TEWEN  =      4400.59424333
  -Hartree energ DENC   =     -5905.73352289
  -exchange      EXHF   =         0.00000000
  -V(xc)+E(xc)   XCENC  =       -60.31609395
  PAW double counting   =       797.20416991     -672.28979984
  entropy T*S    EENTRO =         0.00000000
  eigenvalues    EBANDS =       348.07972560
  atomic energy  EATOM  =      1523.27991600
  free energy    TOTEN  =       485.16501229 eV

  energy without entropy =      485.16501229  energy(sigma->0) =      485.16501229
  exchange ACFDT corr.  =         0.00000000  see jH, gK, PRB 81, 115126

[...]

 eigenvalue-minimisations  :  1344
 total energy-change (2. order) :-0.2914308E+03  (-0.2788992E+03)
 number of electron      36.0000000 magnetization
 augmentation part       36.0000000 magnetization

[...]

 BZINTS: Fermi energy:  5.737658; 36.000000 electrons
         Band energy: -91.455062;  BLOECHL correction: -0.162730
 BZINTS: Fermi energy:  5.737658; 36.000000 electrons
         Band energy: -91.455062;  BLOECHL correction: -0.162730

[...]

 BZINTS: Fermi energy:  4.670000; 36.000000 electrons
         Band energy:-113.389974;  BLOECHL correction:  0.000000
 BZINTS: Fermi energy:  4.670000; 36.000000 electrons
         Band energy:-113.389974;  BLOECHL correction:  0.000000

[...]

 BZINTS: Fermi energy:  3.263089; 36.000000 electrons
         Band energy:-178.372541;  BLOECHL correction: -0.000576

[...]

 eigenvalue-minimisations  :     0
 total energy-change (2. order) : 0.3114301E-06  (-0.1126372E-03)
 number of electron      35.9999999 magnetization
 augmentation part       -1.1252254 magnetization

[...]

--------------------------------------- Iteration      1(  69)  ---------------------------------------

[...]

 eigenvalue-minimisations  :     0
 total energy-change (2. order) :-0.3546131E-06  (-0.8994242E-06)
 number of electron      35.9999999 magnetization
 augmentation part       -1.1252497 magnetization

 Free energy of the ion-electron system (eV)
  alpha Z        PSCENC =        54.34637412
  Ewald energy   TEWEN  =      4400.59424333
  -Hartree energ DENC   =     -5920.82873026
  -exchange      EXHF   =        59.40618765
  -V(xc)+E(xc)   XCENC  =       -58.56921579
  PAW double counting   =       928.08320818     -806.66932794
  entropy T*S    EENTRO =         0.00000000
  eigenvalues    EBANDS =      -236.61927719
  atomic energy  EATOM  =      1523.27991600
  free energy    TOTEN  =       -56.97663731 eV

  energy without entropy =      -56.97663731  energy(sigma->0) =      -56.97663731
  exchange ACFDT corr.  =        -0.00000000  see jH, gK, PRB 81, 115126

  average scaling for gradient   1.5410

 average (electrostatic) potential at core
  the test charge radii are     1.2296  0.9698
  (the norm of the test charge is              1.0000)
       1 -39.7734       2 -39.7734       3 -88.2839       4 -88.2839       5 -88.2832
       6 -88.2833

 E-fermi :  -0.8725     XC(G=0):  -4.8593     alpha+bet : -5.7918

 k-point     1 :       0.0000    0.0000    0.0000
  band No.  band energies     occupation
      1     -16.5947      2.00000
      2     -16.5842      2.00000
      3     -15.2702      2.00000
      4     -15.2514      2.00000
      5      -7.3001      2.00000
      6      -7.2123      2.00000
      7      -3.9185      2.00000
      8      -3.9185      2.00000
      9      -3.9182      2.00000
     10      -3.9182      2.00000
     11      -3.1461      2.00000
     12      -2.8502      2.00000
     13      -2.5770      2.00000
     14      -2.5770      2.00000
     15      -2.5758      2.00000
     16      -2.5758      2.00000
     17      -1.0733      2.00000
     18      -0.8747      2.00000
     19       2.6019      0.00000
     20       2.6076      0.00000
     21       2.6547      0.00000
     22       2.6947      0.00000
     23       2.8248      0.00000
     24       4.2890      0.00000

[...]

 k-point    14 :       0.3000    0.3000    0.0000
  band No.  band energies     occupation
      1     -14.3634      2.00000
      2     -14.3615      2.00000
      3     -14.1673      2.00000
      4     -14.1653      2.00000
      5      -6.8707      2.00000
      6      -6.8644      2.00000
      7      -6.3833      2.00000
      8      -6.3746      2.00000
      9      -5.2549      2.00000
     10      -5.2488      2.00000
     11      -4.9336      2.00000
     12      -4.9142      2.00000
     13      -4.3589      2.00000
     14      -4.3296      2.00000
     15      -3.3441      2.00000
     16      -3.3274      2.00000
     17      -1.0471      2.00000
     18      -1.0374      2.00000
     19       1.3757      0.00000
     20       1.3834      0.00000
     21       2.8809      0.00000
     22       2.9822      0.00000
     23       3.1826      0.00000
     24       3.2199      0.00000

 soft charge-density along one line, spin component           1
         0         1         2         3         4         5         6         7         8         9
 total charge-density along one line

------------------------ aborting loop because EDIFF is reached ----------------------------------------

 total charge

# of ion       s       p       d       tot
    1        0.425   0.627   4.334   5.386
    2        0.425   0.627   4.334   5.386
    3        1.359   2.340   0.000   3.699
    4        1.359   2.340   0.000   3.699
    5        1.359   2.340   0.000   3.699
    6        1.359   2.340   0.000   3.699
tot          6.285  10.615   8.668  25.568

 VOLUME and BASIS-vectors are now :
  energy-cutoff  :      650.00
  volume of cell :      218.22
      direct lattice vectors                 reciprocal lattice vectors
     3.183397116  0.000000000  0.000000000     0.314129832  0.181362943  0.000000000
    -1.591698558  2.756902773  0.000000000     0.000000000  0.362725886  0.000000000
     0.000000000  0.000000000 24.864586014     0.000000000  0.000000000  0.040217842

  length of vectors
     3.183397116  3.183397116 24.864586014     0.362725886  0.362725886  0.040217842

 FORCES acting on ions:
    Electron-Ion                     Ewald-Force                    Non-Local-Force
   -.340E-04 -.628E-06 -.448E+03   0.932E-04 -.108E-03 0.448E+03   -.694E-17 0.139E-16 -.675E-03
   0.231E-04 0.875E-05 0.448E+03   -.929E-04 0.108E-03 -.448E+03   0.278E-16 -.139E-16 0.675E-03
   0.761E-03 -.401E-03 0.162E+02   0.867E-04 -.539E-04 -.114E+02   -.278E-16 0.416E-16 -.472E+01
   -.914E-03 0.467E-03 -.162E+02   -.867E-04 0.539E-04 0.114E+02   0.278E-16 -.416E-16 0.472E+01
   0.887E-03 0.462E-03 -.879E+03   -.670E-05 0.538E-04 0.884E+03   0.000E+00 0.139E-16 -.472E+01
   -.744E-03 -.526E-03 0.879E+03   0.643E-05 -.538E-04 -.884E+03   0.139E-16 -.139E-16 0.472E+01
   -.227E-04 0.110E-04 0.155E-03   -.135E-14 0.478E-13 0.000E+00   0.347E-16 0.000E+00 0.000E+00

 POSITION                                       TOTAL-FORCE (eV/Angst)
     -0.00000      1.83794      3.71759        -0.000000      0.000000      0.000227
      1.59170      0.91897     21.14699        -0.000000     -0.000000     -0.000227
     -0.00000      1.83794     22.71061         0.000000      0.000000     -0.434588
      1.59170      0.91897      2.15398        -0.000000     -0.000000      0.434588
      1.59170      0.91897      5.28115         0.000000      0.000000     -0.437009
      0.00000      1.83794     19.58343         0.000000      0.000000      0.437009
    total drift:                               -0.000023      0.000011      0.000155

  FREE ENERGIE OF THE ION-ELECTRON SYSTEM (eV)
  free  energy   TOTEN  =       -56.97663731 eV

  energy  without entropy=      -56.97663731  energy(sigma->0) =      -56.97663731

 total charge

# of ion       s       p       d       tot
    1        0.425   0.627   4.334   5.386
    2        0.425   0.627   4.334   5.386
    3        1.359   2.340   0.000   3.699
    4        1.359   2.340   0.000   3.699
    5        1.359   2.340   0.000   3.699
    6        1.359   2.340   0.000   3.699
tot          6.285  10.615   8.668  25.568

 BZINTS: Fermi energy: -0.872500; 36.000000 electrons
         Band energy:-236.619293;  BLOECHL correction:  0.000000