 vasp.5.4.4.18Apr17-6-g9f103f2a35 (build Jun 30 2017 11:15:00) complex

 executed on    STALLO_VASP_5.4.4 date 2019.11.08  12:19:59

 INCAR:
 POTCAR:   PAW_PBE Mo 08Apr2002
 POTCAR:    PAW_PBE S 17Jan2003
 POTCAR:   PAW_PBE Mo 08Apr2002
   VRHFIN =Mo: 4p5s4d

   TITEL  = PAW_PBE Mo 08Apr2002
   POMASS =   95.940; ZVAL   =    6.000    mass and valenz
   ENMAX  =  224.584; ENMIN  =  168.438 eV
   QCUT   =   -4.063; QGAM   =    8.126    optimization parameters

   Description
     l     E      TYP  RCUT    TYP  RCUT
     2   .000     23  2.500
     2   .000     23  2.500
     0   .000     23  2.600
     0  1.000     23  2.600
     1   .400     23  2.750
     1  2.000     23  2.750
     3   .000      7   .000

 POTCAR:    PAW_PBE S 17Jan2003
   VRHFIN =S : s2p4

   TITEL  = PAW_PBE S 17Jan2003
   POMASS =   32.066; ZVAL   =    6.000    mass and valenz
   ENMAX  =  280.000; ENMIN  =  194.016 eV
   QCUT   =   -4.360; QGAM   =    8.721    optimization parameters

   Description
     l     E      TYP  RCUT    TYP  RCUT
     0   .000     23  1.900
     0   .000     23  1.900
     1   .000     23  1.900
     1   .000     23  1.900
     2   .000     23  1.900

 PAW_PBE Mo 08Apr2002                   :
  PAW_PBE S 17Jan2003                   :

 POSCAR: MoS2_mp-2815_computed
  positions in direct lattice
 exchange correlation table for  LEXCH =        8
   RHO(1)=    0.500       N(1)  =     2000
   RHO(2)=  100.500       N(2)  =     4000

 ion  position               nearest neighbor table
   1  0.333  0.667  0.250-   5 2.42   4 2.42   4 2.42   5 2.42   5 2.42   4 2.42
   2  0.667  0.333  0.750-   6 2.42   3 2.42   3 2.42   6 2.42   6 2.42   3 2.42
   3  0.333  0.667  0.855-   2 2.42   2 2.42   2 2.42
   4  0.667  0.333  0.145-   1 2.42   1 2.42   1 2.42
   5  0.667  0.333  0.355-   1 2.42   1 2.42   1 2.42
   6  0.333  0.667  0.645-   2 2.42   2 2.42   2 2.42

  LATTYP: Found a hexagonal cell.
 ALAT       =     3.1903157300
 C/A-ratio  =     4.6638030713

  Lattice vectors:

 A1 = (   3.1903157300,   0.0000000000,   0.0000000000)
 A2 = (  -1.5951578650,   2.7628944683,   0.0000000000)
 A3 = (   0.0000000000,   0.0000000000,  14.8790043000)

Analysis of symmetry for initial positions (statically):
 Subroutine PRICEL returns:
 Original cell was already a primitive cell.

 Routine SETGRP: Setting up the symmetry group for a
 hexagonal supercell.

 Subroutine GETGRP returns: Found 24 space group operations
 (whereof 12 operations were pure point group operations)
 out of a pool of 24 trial point group operations.

The static configuration has the point symmetry D_3d.
 The point group associated with its full space group is D_6h.

Analysis of symmetry for dynamics (positions and initial velocities):
 Subroutine PRICEL returns:
 Original cell was already a primitive cell.

 Routine SETGRP: Setting up the symmetry group for a
 hexagonal supercell.

 Subroutine GETGRP returns: Found 24 space group operations
 (whereof 12 operations were pure point group operations)
 out of a pool of 24 trial point group operations.

The dynamic configuration has the point symmetry D_3d.
 The point group associated with its full space group is D_6h.

 Subroutine INISYM returns: Found 24 space group operations
 (whereof 12 operations are pure point group operations),
 and found     1 'primitive' translations

 KPOINTS: k-density: 7.0

Automatic generation of k-mesh.
Space group operators:
 irot       det(A)        alpha          n_x          n_y          n_z        tau_x        tau_y        tau_z
    1     1.000000     0.000001     1.000000     0.000000     0.000000     0.000000     0.000000     0.000000
    2    -1.000000     0.000001     1.000000     0.000000     0.000000     0.000000     0.000000     0.000000
    3     1.000000   120.000000     0.000000     0.000000    -1.000000     0.000000     0.000000     0.000000
    4    -1.000000   120.000000     0.000000     0.000000    -1.000000     0.000000     0.000000     0.000000
    5     1.000000   120.000000     0.000000     0.000000     1.000000     0.000000     0.000000     0.000000
    6    -1.000000   120.000000     0.000000     0.000000     1.000000     0.000000     0.000000     0.000000
    7     1.000000   179.999999     1.000000    -0.000000     0.000000     0.000000     0.000000     0.000000
    8    -1.000000   179.999999     1.000000    -0.000000     0.000000     0.000000     0.000000     0.000000
    9     1.000000   180.000000     0.500000    -0.866025     0.000000     0.000000     0.000000     0.000000
   10    -1.000000   180.000000     0.500000    -0.866025     0.000000     0.000000     0.000000     0.000000
   11     1.000000   180.000000    -0.500000    -0.866025     0.000000     0.000000     0.000000     0.000000
   12    -1.000000   180.000000    -0.500000    -0.866025     0.000000     0.000000     0.000000     0.000000
   13     1.000000    60.000000     0.000000     0.000000    -1.000000     0.000001     0.000000     0.500000
   14    -1.000000    60.000000     0.000000     0.000000    -1.000000     0.000001     0.000000     0.500000
   15     1.000000   180.000000     0.000000     0.000000     1.000000     0.000000     0.000000     0.500000
   16    -1.000000   180.000000     0.000000     0.000000     1.000000     0.000000     0.000000     0.500000
   17     1.000000    60.000000     0.000000     0.000000     1.000000     0.000000     0.000000     0.500000
   18    -1.000000    60.000000     0.000000     0.000000     1.000000     0.000000     0.000000     0.500000
   19     1.000000   179.999999     0.866025    -0.500000     0.000000     0.000000     0.000000     0.500000
   20    -1.000000   179.999999     0.866025    -0.500000     0.000000     0.000000     0.000000     0.500000
   21     1.000000   180.000000     0.000000     1.000000     0.000000     0.000001     0.000000     0.500000
   22    -1.000000   180.000000     0.000000     1.000000     0.000000     0.000001     0.000000     0.500000
   23     1.000000   179.999999     0.866025     0.500000     0.000000     0.000000     0.000000     0.500000
   24    -1.000000   179.999999     0.866025     0.500000     0.000000     0.000000     0.000000     0.500000

 Subroutine IBZKPT returns following result:

 Found     48 irreducible k-points:

 Following reciprocal coordinates:
            Coordinates               Weight
  0.000000  0.000000  0.000000      1.000000
  0.071429  0.000000  0.000000      6.000000
  0.142857  0.000000  0.000000      6.000000
  0.214286 -0.000000  0.000000      6.000000
  0.285714  0.000000  0.000000      6.000000
  0.357143 -0.000000  0.000000      6.000000
  0.428571 -0.000000  0.000000      6.000000
  0.500000 -0.000000  0.000000      3.000000
  0.071429  0.071429  0.000000      6.000000
  0.142857  0.071429  0.000000     12.000000
  0.214286  0.071429  0.000000     12.000000
  0.285714  0.071429  0.000000     12.000000
  0.357143  0.071429  0.000000     12.000000
  0.428571  0.071429  0.000000     12.000000
  0.142857  0.142857  0.000000      6.000000
  0.214286  0.142857  0.000000     12.000000
  0.285714  0.142857  0.000000     12.000000
  0.357143  0.142857  0.000000     12.000000
  0.428571  0.142857  0.000000      6.000000
  0.214286  0.214286  0.000000      6.000000
  0.285714  0.214286  0.000000     12.000000
  0.357143  0.214286  0.000000     12.000000
  0.285714  0.285714  0.000000      6.000000
  0.357143  0.285714  0.000000      6.000000
  0.000000  0.000000  0.333333      2.000000
  0.071429  0.000000  0.333333     12.000000
  0.142857  0.000000  0.333333     12.000000
  0.214286 -0.000000  0.333333     12.000000
  0.285714  0.000000  0.333333     12.000000
  0.357143 -0.000000  0.333333     12.000000
  0.428571 -0.000000  0.333333     12.000000
  0.500000 -0.000000  0.333333      6.000000
  0.071429  0.071429  0.333333     12.000000
  0.142857  0.071429  0.333333     24.000000
  0.214286  0.071429  0.333333     24.000000
  0.285714  0.071429  0.333333     24.000000
  0.357143  0.071429  0.333333     24.000000
  0.428571  0.071429  0.333333     24.000000
  0.142857  0.142857  0.333333     12.000000
  0.214286  0.142857  0.333333     24.000000
  0.285714  0.142857  0.333333     24.000000
  0.357143  0.142857  0.333333     24.000000
  0.428571  0.142857  0.333333     12.000000
  0.214286  0.214286  0.333333     12.000000
  0.285714  0.214286  0.333333     24.000000
  0.357143  0.214286  0.333333     24.000000
  0.285714  0.285714  0.333333     12.000000
  0.357143  0.285714  0.333333     12.000000

 Following cartesian coordinates:
            Coordinates               Weight
  0.000000  0.000000  0.000000      1.000000
  0.022389  0.012926  0.000000      6.000000
  0.044778  0.025853  0.000000      6.000000
  0.067168  0.038779  0.000000      6.000000
  0.089557  0.051706  0.000000      6.000000
  0.111946  0.064632  0.000000      6.000000
  0.134335  0.077558  0.000000      6.000000
  0.156724  0.090485  0.000000      3.000000
  0.022389  0.038779  0.000000      6.000000
  0.044778  0.051706  0.000000     12.000000
  0.067168  0.064632  0.000000     12.000000
  0.089557  0.077558  0.000000     12.000000
  0.111946  0.090485  0.000000     12.000000
  0.134335  0.103411  0.000000     12.000000
  0.044778  0.077558  0.000000      6.000000
  0.067168  0.090485  0.000000     12.000000
  0.089557  0.103411  0.000000     12.000000
  0.111946  0.116338  0.000000     12.000000
  0.134335  0.129264  0.000000      6.000000
  0.067168  0.116338  0.000000      6.000000
  0.089557  0.129264  0.000000     12.000000
  0.111946  0.142190  0.000000     12.000000
  0.089557  0.155117  0.000000      6.000000
  0.111946  0.168043  0.000000      6.000000
  0.000000  0.000000  0.022403      2.000000
  0.022389  0.012926  0.022403     12.000000
  0.044778  0.025853  0.022403     12.000000
  0.067168  0.038779  0.022403     12.000000
  0.089557  0.051706  0.022403     12.000000
  0.111946  0.064632  0.022403     12.000000
  0.134335  0.077558  0.022403     12.000000
  0.156724  0.090485  0.022403      6.000000
  0.022389  0.038779  0.022403     12.000000
  0.044778  0.051706  0.022403     24.000000
  0.067168  0.064632  0.022403     24.000000
  0.089557  0.077558  0.022403     24.000000
  0.111946  0.090485  0.022403     24.000000
  0.134335  0.103411  0.022403     24.000000
  0.044778  0.077558  0.022403     12.000000
  0.067168  0.090485  0.022403     24.000000
  0.089557  0.103411  0.022403     24.000000
  0.111946  0.116338  0.022403     24.000000
  0.134335  0.129264  0.022403     12.000000
  0.067168  0.116338  0.022403     12.000000
  0.089557  0.129264  0.022403     24.000000
  0.111946  0.142190  0.022403     24.000000
  0.089557  0.155117  0.022403     12.000000
  0.111946  0.168043  0.022403     12.000000

 TETIRR: Found    511 inequivalent tetrahedra from     3528

 SYSTEM =  unknown system
 POSCAR =  MoS2_mp-2815_computed

 Startparameter for this run:
   NWRITE =      2    write-flag & timer
   PREC   = normal    normal or accurate (medium, high low for compatibility)
   ISTART =      0    job   : 0-new  1-cont  2-samecut
   ICHARG =      2    charge: 1-file 2-atom 10-const
   ISPIN  =      1    spin polarized calculation?
[...]
   0.11194593  0.09048482  0.02240293       0.041
   0.13433511  0.10341122  0.02240293       0.041
   0.04477837  0.07755841  0.02240293       0.020
   0.06716756  0.09048482  0.02240293       0.041
   0.08955674  0.10341122  0.02240293       0.041
   0.11194593  0.11633762  0.02240293       0.041
   0.13433511  0.12926402  0.02240293       0.020
   0.06716756  0.11633762  0.02240293       0.020
   0.08955674  0.12926402  0.02240293       0.041
   0.11194593  0.14219043  0.02240293       0.041
   0.08955674  0.15511683  0.02240293       0.020
   0.11194593  0.16804323  0.02240293       0.020

 k-points in reciprocal lattice and weights: k-density: 7.0
   0.00000000  0.00000000  0.00000000       0.002
   0.07142857  0.00000000  0.00000000       0.010
   0.14285714  0.00000000  0.00000000       0.010
   0.21428571 -0.00000000  0.00000000       0.010
   0.28571429  0.00000000  0.00000000       0.010
   0.35714286 -0.00000000  0.00000000       0.010
   0.42857143 -0.00000000  0.00000000       0.010
   0.50000000 -0.00000000  0.00000000       0.005
   0.07142857  0.07142857  0.00000000       0.010
   0.14285714  0.07142857  0.00000000       0.020
   0.21428571  0.07142857  0.00000000       0.020
   0.28571429  0.07142857  0.00000000       0.020
   0.35714286  0.07142857  0.00000000       0.020
   0.42857143  0.07142857  0.00000000       0.020
   0.14285714  0.14285714  0.00000000       0.010
   0.21428571  0.14285714  0.00000000       0.020
   0.28571429  0.14285714  0.00000000       0.020
   0.35714286  0.14285714  0.00000000       0.020
   0.42857143  0.14285714  0.00000000       0.010
   0.21428571  0.21428571  0.00000000       0.010
   0.28571429  0.21428571  0.00000000       0.020
   0.35714286  0.21428571  0.00000000       0.020
   0.28571429  0.28571429  0.00000000       0.010
   0.35714286  0.28571429  0.00000000       0.010
   0.00000000  0.00000000  0.33333333       0.003
   0.07142857  0.00000000  0.33333333       0.020
   0.14285714  0.00000000  0.33333333       0.020
   0.21428571 -0.00000000  0.33333333       0.020
   0.28571429  0.00000000  0.33333333       0.020
   0.35714286 -0.00000000  0.33333333       0.020
   0.42857143 -0.00000000  0.33333333       0.020
   0.50000000 -0.00000000  0.33333333       0.010
   0.07142857  0.07142857  0.33333333       0.020
   0.14285714  0.07142857  0.33333333       0.041
   0.21428571  0.07142857  0.33333333       0.041
   0.28571429  0.07142857  0.33333333       0.041
   0.35714286  0.07142857  0.33333333       0.041
   0.42857143  0.07142857  0.33333333       0.041
   0.14285714  0.14285714  0.33333333       0.020
   0.21428571  0.14285714  0.33333333       0.041
   0.28571429  0.14285714  0.33333333       0.041
   0.35714286  0.14285714  0.33333333       0.041
   0.42857143  0.14285714  0.33333333       0.020
   0.21428571  0.21428571  0.33333333       0.020
   0.28571429  0.21428571  0.33333333       0.041
   0.35714286  0.21428571  0.33333333       0.041
   0.28571429  0.28571429  0.33333333       0.020
   0.35714286  0.28571429  0.33333333       0.020

 position of ions in fractional coordinates (direct lattice)
   0.33333300  0.66666700  0.25000000
   0.66666700  0.33333300  0.75000000
   0.33333300  0.66666700  0.85517400
   0.66666700  0.33333300  0.14482600
   0.66666600  0.33333300  0.35517400
   0.33333400  0.66666700  0.64482600

 position of ions in cartesian coordinates  (Angst):
  -0.00000160  1.84193057  3.71975108
   1.59515946  0.92096390 11.15925323
  -0.00000160  1.84193057 12.72413762
   1.59515946  0.92096390  2.15486668
   1.59515627  0.92096390  5.28463547
   0.00000160  1.84193057  9.59436883

 k-point  1 :   0.0000 0.0000 0.0000  plane waves:    2895
 k-point  2 :   0.0714 0.0000 0.0000  plane waves:    2895
 k-point  3 :   0.1429 0.0000 0.0000  plane waves:    2873
 k-point  4 :   0.2143-0.0000 0.0000  plane waves:    2853
 k-point  5 :   0.2857 0.0000 0.0000  plane waves:    2860
 k-point  6 :   0.3571-0.0000 0.0000  plane waves:    2832
 k-point  7 :   0.4286-0.0000 0.0000  plane waves:    2812
 k-point  8 :   0.5000-0.0000 0.0000  plane waves:    2784
 k-point  9 :   0.0714 0.0714 0.0000  plane waves:    2891
 k-point 10 :   0.1429 0.0714 0.0000  plane waves:    2859
 k-point 11 :   0.2143 0.0714 0.0000  plane waves:    2855
 k-point 12 :   0.2857 0.0714 0.0000  plane waves:    2839
 k-point 13 :   0.3571 0.0714 0.0000  plane waves:    2832
 k-point 14 :   0.4286 0.0714 0.0000  plane waves:    2812
 k-point 15 :   0.1429 0.1429 0.0000  plane waves:    2849
 k-point 16 :   0.2143 0.1429 0.0000  plane waves:    2851
 k-point 17 :   0.2857 0.1429 0.0000  plane waves:    2857
 k-point 18 :   0.3571 0.1429 0.0000  plane waves:    2821
 k-point 19 :   0.4286 0.1429 0.0000  plane waves:    2822
 k-point 20 :   0.2143 0.2143 0.0000  plane waves:    2851
 k-point 21 :   0.2857 0.2143 0.0000  plane waves:    2830
 k-point 22 :   0.3571 0.2143 0.0000  plane waves:    2836
 k-point 23 :   0.2857 0.2857 0.0000  plane waves:    2844
 k-point 24 :   0.3571 0.2857 0.0000  plane waves:    2840
 k-point 25 :   0.0000 0.0000 0.3333  plane waves:    2890
 k-point 26 :   0.0714 0.0000 0.3333  plane waves:    2890
 k-point 27 :   0.1429 0.0000 0.3333  plane waves:    2880
 k-point 28 :   0.2143-0.0000 0.3333  plane waves:    2861
 k-point 29 :   0.2857 0.0000 0.3333  plane waves:    2843
 k-point 30 :   0.3571-0.0000 0.3333  plane waves:    2836
 k-point 31 :   0.4286-0.0000 0.3333  plane waves:    2822
 k-point 32 :   0.5000-0.0000 0.3333  plane waves:    2814
 k-point 33 :   0.0714 0.0714 0.3333  plane waves:    2883
 k-point 34 :   0.1429 0.0714 0.3333  plane waves:    2873
 k-point 35 :   0.2143 0.0714 0.3333  plane waves:    2853
 k-point 36 :   0.2857 0.0714 0.3333  plane waves:    2846
 k-point 37 :   0.3571 0.0714 0.3333  plane waves:    2825
 k-point 38 :   0.4286 0.0714 0.3333  plane waves:    2822
 k-point 39 :   0.1429 0.1429 0.3333  plane waves:    2848
 k-point 40 :   0.2143 0.1429 0.3333  plane waves:    2846
 k-point 41 :   0.2857 0.1429 0.3333  plane waves:    2835
 k-point 42 :   0.3571 0.1429 0.3333  plane waves:    2824
 k-point 43 :   0.4286 0.1429 0.3333  plane waves:    2813
 k-point 44 :   0.2143 0.2143 0.3333  plane waves:    2843
 k-point 45 :   0.2857 0.2143 0.3333  plane waves:    2839
 k-point 46 :   0.3571 0.2143 0.3333  plane waves:    2827
 k-point 47 :   0.2857 0.2857 0.3333  plane waves:    2839
 k-point 48 :   0.3571 0.2857 0.3333  plane waves:    2842

 maximum and minimum number of plane-waves per node :      1468     1385

 maximum number of plane-waves:      2895
 maximum index in each direction:
   IXMAX=    5   IYMAX=    5   IZMAX=   25
   IXMIN=   -6   IYMIN=   -5   IZMIN=  -26

 parallel 3D FFT for wavefunctions:
    minimum data exchange during FFTs selected (reduces bandwidth)
 parallel 3D FFT for charge:
    minimum data exchange during FFTs selected (reduces bandwidth)

 Broyden mixing: mesh for mixing (old mesh)
   NGX = 11   NGY = 11   NGZ = 51
  (NGX  = 36   NGY  = 36   NGZ  =160)
  gives a total of   6171 points

 initial charge density was supplied:
 charge density of overlapping atoms calculated
 number of electron      36.0000000 magnetization
 keeping initial charge density in first step

 Maximum index for augmentation-charges         3021 (set IRDMAX)

 First call to EWALD:  gamma=   0.349
 Maximum number of real-space cells 5x 5x 1
 Maximum number of reciprocal cells 2x 2x 7

--------------------------------------- Iteration      1(   1)  ---------------------------------------

 BZINTS: Fermi energy: 14.499486; 36.000000 electrons
         Band energy: 167.142574;  BLOECHL correction: -0.210007

 eigenvalue-minimisations  :  2112
 total energy-change (2. order) : 0.2003850E+03  (-0.1468648E+04)
 number of electron      36.0000000 magnetization
 augmentation part       36.0000000 magnetization

 Free energy of the ion-electron system (eV)
  alpha Z        PSCENC =        90.42577596
  Ewald energy   TEWEN  =     -1146.88905665
  -Hartree energ DENC   =      -535.10238363
  -exchange      EXHF   =         0.00000000
  -V(xc)+E(xc)   XCENC  =       -72.59368150
  PAW double counting   =       813.77302396     -658.68146406
  entropy T*S    EENTRO =         0.00000000
  eigenvalues    EBANDS =       167.14257376
  atomic energy  EATOM  =      1542.31022798
  Solvation  Ediel_sol  =         0.00000000
  free energy    TOTEN  =       200.38501584 eV

  energy without entropy =      200.38501584  energy(sigma->0) =      200.38501584

[...]

 eigenvalue-minimisations  :  2868
 total energy-change (2. order) :-0.2288440E+03  (-0.2225778E+03)
 number of electron      36.0000000 magnetization
 augmentation part       36.0000000 magnetization

[...]

 Broyden mixing:
  rms(total) = 0.97335E+00    rms(broyden)= 0.97334E+00
  rms(prec ) = 0.12179E+01
  weight for this iteration     100.00

[...]

 eigenvalues of (default mixing * dielectric matrix)
  average eigenvalue GAMMA=   0.8777
  0.8777

[...]

 eigenvalue-minimisations  :  2130
 total energy-change (2. order) : 0.1301570E-04  (-0.7044912E-05)
 number of electron      36.0000007 magnetization
 augmentation part       -1.1001304 magnetization

 Broyden mixing:
  rms(total) = 0.27149E-03    rms(broyden)= 0.27146E-03
  rms(prec ) = 0.31595E-03
  weight for this iteration     100.00

 eigenvalues of (default mixing * dielectric matrix)
  average eigenvalue GAMMA=   1.6013
  3.1083  2.6954  2.3106  1.5550  1.1372  0.8718  0.8718  0.9306  0.9306

[...]

--------------------------------------- Iteration      1(  15)  ---------------------------------------

[...]

 eigenvalue-minimisations  :  1620
 total energy-change (2. order) :-0.4508011E-06  (-0.9717134E-06)
 number of electron      36.0000007 magnetization
 augmentation part       -1.1001304 magnetization

 Free energy of the ion-electron system (eV)
  alpha Z        PSCENC =        90.42577596
  Ewald energy   TEWEN  =     -1146.88905665
  -Hartree energ DENC   =      -542.95356490
  -exchange      EXHF   =         0.00000000
  -V(xc)+E(xc)   XCENC  =       -70.39238436
  PAW double counting   =       944.33866025     -792.71981200
  entropy T*S    EENTRO =         0.00000000
  eigenvalues    EBANDS =       -67.72559374
  atomic energy  EATOM  =      1542.31022798
  Solvation  Ediel_sol  =         0.00000000
  free energy    TOTEN  =       -43.60574744 eV

  energy without entropy =      -43.60574744  energy(sigma->0) =      -43.60574744

 average (electrostatic) potential at core
  the test charge radii are     1.2296  0.9698
  (the norm of the test charge is              1.0000)
       1 -40.3326       2 -40.3326       3 -88.1703       4 -88.1703       5 -88.1703
       6 -88.1703

 E-fermi :   3.3090     XC(G=0):  -9.3248     alpha+bet : -9.6368

 k-point     1 :       0.0000    0.0000    0.0000
  band No.  band energies     occupation
      1     -10.9296      2.00000
      2     -10.9106      2.00000
      3      -9.7292      2.00000
      4      -9.6952      2.00000
      5      -2.5232      2.00000
      6      -2.3617      2.00000
      7       0.5200      2.00000
      8       0.5200      2.00000
      9       0.5205      2.00000
     10       0.5205      2.00000
     11       1.1062      2.00000
     12       1.6249      2.00000
     13       1.6250      2.00000
     14       1.6269      2.00000
     15       1.6269      2.00000
     16       1.6748      2.00000
     17       2.9225      2.00000
     18       3.2984      2.00000
     19       5.8749      0.00000
     20       5.9113      0.00000
     21       6.0192      0.00000
     22       6.0856      0.00000

[...]

 k-point    48 :       0.3571    0.2857    0.3333
  band No.  band energies     occupation
      1      -8.9002      2.00000
      2      -8.8992      2.00000
      3      -8.7339      2.00000
      4      -8.7329      2.00000
      5      -2.1986      2.00000
      6      -2.1926      2.00000
      7      -1.5860      2.00000
      8      -1.5813      2.00000
      9      -0.8092      2.00000
     10      -0.8048      2.00000
     11      -0.3495      2.00000
     12      -0.3450      2.00000
     13       0.1920      2.00000
     14       0.2109      2.00000
     15       1.0142      2.00000
     16       1.0288      2.00000
     17       3.0438      2.00000
     18       3.0538      2.00000
     19       4.8213      0.00000
     20       4.8236      0.00000
     21       6.1211      0.00000
     22       6.2112      0.00000

 soft charge-density along one line, spin component           1
         0         1         2         3         4         5         6         7         8         9
 total charge-density along one line

------------------------ aborting loop because EDIFF is reached ----------------------------------------

  DFT-D2 method for vdW energy calculation

  Parameters of vdW forcefield:
         C6(Jnm^6/mol)     R0(A)
   Mo      24.670          1.639
   S        5.570          1.683

  IVDW =   1
  VDW_RADIUS =    50.000 A
  VDW_S6 =     0.750
  VDW_SR =     1.000
  VDW_D =    20.000
  LVDW_EWALD = F

  Number of pair interactions contributing to vdW energy:   84128
  Edisp (eV):   -1.33129

  FORCE on cell =-STRESS in cart. coord.  units (eV):
  Direction    XX          YY          ZZ          XY          YZ          ZX
  Alpha Z    90.42578    90.42578    90.42578
  Ewald     -12.90873   -12.90785 -1121.07429     0.00038     0.00000     0.00025
  Hartree   466.59741   466.59742  -390.21946     0.00003    -0.00000    -0.00001
  E(xc)    -140.60504  -140.60505  -141.79650    -0.00001    -0.00000    -0.00000
  Local   -1080.53545 -1080.53612   872.57453    -0.00042    -0.00000    -0.00011
  n-local   254.45364   251.43921   263.35163    -0.52690     0.00291     0.00277
  augment   -51.13294   -51.13279   -53.33444     0.00014     0.00000    -0.00001
  Kinetic   472.19864   477.05028   479.58323   -15.00514     0.00470     0.00473
  Fock        0.00000     0.00000     0.00000     0.00000     0.00000     0.00000
  vdW         0.17103     0.17103    -0.86546     0.00000     0.00000    -0.00000
  Total      -0.41687    -0.41687    -1.35498     0.00000     0.00000     0.00000
  in kB      -5.09263    -5.09263   -16.55287     0.00000     0.00000     0.00000

 VOLUME and BASIS-vectors are now :
  energy-cutoff  :      450.00
  volume of cell :      131.15
      direct lattice vectors                 reciprocal lattice vectors
     3.190315730  0.000000000  0.000000000     0.313448600  0.180969634  0.000000000
    -1.595157865  2.762894468  0.000000000     0.000000000  0.361939267  0.000000000
     0.000000000  0.000000000 14.879004300     0.000000000  0.000000000  0.067208798

  length of vectors
     3.190315730  3.190315730 14.879004300     0.361939267  0.361939267  0.067208798

 FORCES acting on ions
    electron-ion (+dipol)            ewald-force                    non-local-force                 convergence-correction
   0.473E-04 -.345E-04 -.994E-05   0.928E-04 -.107E-03 0.288E-09   0.867E-17 -.208E-16 0.000E+00   0.358E-08 -.513E-08 -.340E-09
   0.659E-04 -.309E-04 -.994E-05   -.928E-04 0.107E-03 -.288E-09   -.208E-16 0.208E-16 0.000E+00   0.677E-08 -.842E-09 -.341E-09
   0.525E-03 -.305E-03 -.242E+03   0.865E-04 -.537E-04 0.247E+03   -.477E-17 -.781E-17 -.480E+01   0.103E-07 -.638E-08 0.801E-02
   -.117E-02 0.679E-03 0.242E+03   -.865E-04 0.537E-04 -.247E+03   -.477E-17 0.781E-17 0.480E+01   -.284E-07 0.168E-07 -.801E-02
   0.523E-03 0.689E-03 -.242E+03   -.638E-05 0.537E-04 0.247E+03   0.104E-16 0.520E-17 -.480E+01   0.130E-07 0.148E-07 0.801E-02
   -.121E-02 -.292E-03 0.242E+03   0.638E-05 -.537E-04 -.247E+03   -.867E-17 -.520E-17 0.480E+01   -.241E-07 -.839E-08 -.801E-02
   -.122E-02 0.706E-03 -.111E-04   -.561E-14 0.109E-13 0.284E-13   -.199E-16 0.000E+00 -.178E-14   -.188E-07 0.109E-07 -.887E-09

 POSITION                                       TOTAL-FORCE (eV/Angst)
     -0.00000      1.84193      3.71975         0.000000     -0.000000     -0.000000
      1.59516      0.92096     11.15925         0.000000      0.000000     -0.000000
     -0.00000      1.84193     12.72414        -0.000000      0.000000     -0.085658
      1.59516      0.92096      2.15487         0.000000     -0.000000      0.085658
      1.59516      0.92096      5.28464         0.000000      0.000000     -0.085658
      0.00000      1.84193      9.59437        -0.000000     -0.000000      0.085658
    total drift:                               -0.001223      0.000706     -0.000011

  FREE ENERGIE OF THE ION-ELECTRON SYSTEM (eV)
  free  energy   TOTEN  =       -44.93703446 eV

  energy  without entropy=      -44.93703446  energy(sigma->0) =      -44.93703446

 BZINTS: Fermi energy:  3.308986; 36.000000 electrons
         Band energy: -67.725594;  BLOECHL correction:  0.000000