 vasp.5.4.4.18Apr17-6-g9f103f2a35 (build Jun 30 2017 11:15:00) complex

 executed on    STALLO_VASP_5.4.4 date 2019.11.08  12:19:59

 INCAR:
 POTCAR:   PAW_PBE Mo 08Apr2002
 POTCAR:    PAW_PBE S 17Jan2003
 POTCAR:   PAW_PBE Mo 08Apr2002
   VRHFIN =Mo: 4p5s4d

   TITEL  = PAW_PBE Mo 08Apr2002
   POMASS =   95.940; ZVAL   =    6.000    mass and valenz
   ENMAX  =  224.584; ENMIN  =  168.438 eV
   QCUT   =   -4.063; QGAM   =    8.126    optimization parameters

   Description
     l     E      TYP  RCUT    TYP  RCUT
     2   .000     23  2.500
     2   .000     23  2.500
     0   .000     23  2.600
     0  1.000     23  2.600
     1   .400     23  2.750
     1  2.000     23  2.750
     3   .000      7   .000

 POTCAR:    PAW_PBE S 17Jan2003
   VRHFIN =S : s2p4

   TITEL  = PAW_PBE S 17Jan2003
   POMASS =   32.066; ZVAL   =    6.000    mass and valenz
   ENMAX  =  280.000; ENMIN  =  194.016 eV
   QCUT   =   -4.360; QGAM   =    8.721    optimization parameters

   Description
     l     E      TYP  RCUT    TYP  RCUT
     0   .000     23  1.900
     0   .000     23  1.900
     1   .000     23  1.900
     1   .000     23  1.900
     2   .000     23  1.900

 PAW_PBE Mo 08Apr2002                   :
  PAW_PBE S 17Jan2003                   :

 POSCAR: MoS2_mp-2815_computed
  positions in direct lattice
 exchange correlation table for  LEXCH =        8
   RHO(1)=    0.500       N(1)  =     2000
   RHO(2)=  100.500       N(2)  =     4000

 ion  position               nearest neighbor table
   1  0.333  0.667  0.250-   5 2.42   4 2.42   4 2.42   5 2.42   5 2.42   4 2.42
   2  0.667  0.333  0.750-   6 2.42   3 2.42   3 2.42   6 2.42   6 2.42   3 2.42
   3  0.333  0.667  0.855-   2 2.42   2 2.42   2 2.42
   4  0.667  0.333  0.145-   1 2.42   1 2.42   1 2.42
   5  0.667  0.333  0.355-   1 2.42   1 2.42   1 2.42
   6  0.333  0.667  0.645-   2 2.42   2 2.42   2 2.42

  LATTYP: Found a hexagonal cell.
 ALAT       =     3.1903157300
 C/A-ratio  =     4.6638030713

  Lattice vectors:

 A1 = (   3.1903157300,   0.0000000000,   0.0000000000)
 A2 = (  -1.5951578650,   2.7628944683,   0.0000000000)
 A3 = (   0.0000000000,   0.0000000000,  14.8790043000)

Analysis of symmetry for initial positions (statically):
 Subroutine PRICEL returns:
 Original cell was already a primitive cell.

 Routine SETGRP: Setting up the symmetry group for a
 hexagonal supercell.

 Subroutine GETGRP returns: Found 24 space group operations
 (whereof 12 operations were pure point group operations)
 out of a pool of 24 trial point group operations.

The static configuration has the point symmetry D_3d.
 The point group associated with its full space group is D_6h.

Analysis of symmetry for dynamics (positions and initial velocities):
 Subroutine PRICEL returns:
 Original cell was already a primitive cell.

 Routine SETGRP: Setting up the symmetry group for a
 hexagonal supercell.

 Subroutine GETGRP returns: Found 24 space group operations
 (whereof 12 operations were pure point group operations)
 out of a pool of 24 trial point group operations.

The dynamic configuration has the point symmetry D_3d.
 The point group associated with its full space group is D_6h.

 Subroutine INISYM returns: Found 24 space group operations
 (whereof 12 operations are pure point group operations),
 and found     1 'primitive' translations

 KPOINTS: k-density: 9.0

Automatic generation of k-mesh.
Space group operators:
 irot       det(A)        alpha          n_x          n_y          n_z        tau_x        tau_y        tau_z
    1     1.000000     0.000001     1.000000     0.000000     0.000000     0.000000     0.000000     0.000000
    2    -1.000000     0.000001     1.000000     0.000000     0.000000     0.000000     0.000000     0.000000
    3     1.000000   120.000000     0.000000     0.000000    -1.000000     0.000000     0.000000     0.000000
    4    -1.000000   120.000000     0.000000     0.000000    -1.000000     0.000000     0.000000     0.000000
    5     1.000000   120.000000     0.000000     0.000000     1.000000     0.000000     0.000000     0.000000
    6    -1.000000   120.000000     0.000000     0.000000     1.000000     0.000000     0.000000     0.000000
    7     1.000000   179.999999     1.000000    -0.000000     0.000000     0.000000     0.000000     0.000000
    8    -1.000000   179.999999     1.000000    -0.000000     0.000000     0.000000     0.000000     0.000000
    9     1.000000   180.000000     0.500000    -0.866025     0.000000     0.000000     0.000000     0.000000
   10    -1.000000   180.000000     0.500000    -0.866025     0.000000     0.000000     0.000000     0.000000
   11     1.000000   180.000000    -0.500000    -0.866025     0.000000     0.000000     0.000000     0.000000
   12    -1.000000   180.000000    -0.500000    -0.866025     0.000000     0.000000     0.000000     0.000000
   13     1.000000    60.000000     0.000000     0.000000    -1.000000     0.000001     0.000000     0.500000
   14    -1.000000    60.000000     0.000000     0.000000    -1.000000     0.000001     0.000000     0.500000
   15     1.000000   180.000000     0.000000     0.000000     1.000000     0.000000     0.000000     0.500000
   16    -1.000000   180.000000     0.000000     0.000000     1.000000     0.000000     0.000000     0.500000
   17     1.000000    60.000000     0.000000     0.000000     1.000000     0.000000     0.000000     0.500000
   18    -1.000000    60.000000     0.000000     0.000000     1.000000     0.000000     0.000000     0.500000
   19     1.000000   179.999999     0.866025    -0.500000     0.000000     0.000000     0.000000     0.500000
   20    -1.000000   179.999999     0.866025    -0.500000     0.000000     0.000000     0.000000     0.500000
   21     1.000000   180.000000     0.000000     1.000000     0.000000     0.000001     0.000000     0.500000
   22    -1.000000   180.000000     0.000000     1.000000     0.000000     0.000001     0.000000     0.500000
   23     1.000000   179.999999     0.866025     0.500000     0.000000     0.000000     0.000000     0.500000
   24    -1.000000   179.999999     0.866025     0.500000     0.000000     0.000000     0.000000     0.500000

 Subroutine IBZKPT returns following result:

 Found    111 irreducible k-points:

 Following reciprocal coordinates:
            Coordinates               Weight
  0.000000  0.000000  0.000000      1.000000
  0.055556 -0.000000  0.000000      6.000000
  0.111111 -0.000000  0.000000      6.000000
  0.166667 -0.000000  0.000000      6.000000
  0.222222  0.000000  0.000000      6.000000
  0.277778  0.000000  0.000000      6.000000
  0.333333  0.000000  0.000000      6.000000
  0.388889  0.000000  0.000000      6.000000
  0.444444  0.000000  0.000000      6.000000
  0.500000  0.000000  0.000000      3.000000
  0.055556  0.055556  0.000000      6.000000
  0.111111  0.055556  0.000000     12.000000
  0.166667  0.055556  0.000000     12.000000
  0.222222  0.055556  0.000000     12.000000
  0.277778  0.055556  0.000000     12.000000
  0.333333  0.055556  0.000000     12.000000
  0.388889  0.055556  0.000000     12.000000
  0.444444  0.055556  0.000000     12.000000
  0.111111  0.111111  0.000000      6.000000
  0.166667  0.111111  0.000000     12.000000
  0.222222  0.111111  0.000000     12.000000
  0.277778  0.111111  0.000000     12.000000
  0.333333  0.111111  0.000000     12.000000
  0.388889  0.111111  0.000000     12.000000
  0.444444  0.111111  0.000000      6.000000
  0.166667  0.166667  0.000000      6.000000
  0.222222  0.166667  0.000000     12.000000
  0.277778  0.166667  0.000000     12.000000
  0.333333  0.166667  0.000000     12.000000
  0.388889  0.166667  0.000000     12.000000
  0.222222  0.222222  0.000000      6.000000
  0.277778  0.222222  0.000000     12.000000
  0.333333  0.222222  0.000000     12.000000
  0.388889  0.222222  0.000000      6.000000
  0.277778  0.277778  0.000000      6.000000
  0.333333  0.277778  0.000000     12.000000
  0.333333  0.333333  0.000000      2.000000
  0.000000  0.000000  0.250000      2.000000
  0.055556 -0.000000  0.250000     12.000000
  0.111111 -0.000000  0.250000     12.000000
  0.166667 -0.000000  0.250000     12.000000
  0.222222  0.000000  0.250000     12.000000
  0.277778  0.000000  0.250000     12.000000
  0.333333  0.000000  0.250000     12.000000
  0.388889  0.000000  0.250000     12.000000
  0.444444  0.000000  0.250000     12.000000
  0.500000  0.000000  0.250000      6.000000
  0.055556  0.055556  0.250000     12.000000
  0.111111  0.055556  0.250000     24.000000
  0.166667  0.055556  0.250000     24.000000
  0.222222  0.055556  0.250000     24.000000
  0.277778  0.055556  0.250000     24.000000
  0.333333  0.055556  0.250000     24.000000
  0.388889  0.055556  0.250000     24.000000
  0.444444  0.055556  0.250000     24.000000
  0.111111  0.111111  0.250000     12.000000
  0.166667  0.111111  0.250000     24.000000
  0.222222  0.111111  0.250000     24.000000
  0.277778  0.111111  0.250000     24.000000
  0.333333  0.111111  0.250000     24.000000
[...]
  0.333333  0.111111  0.500000     12.000000
  0.388889  0.111111  0.500000     12.000000
  0.444444  0.111111  0.500000      6.000000
  0.166667  0.166667  0.500000      6.000000
  0.222222  0.166667  0.500000     12.000000
  0.277778  0.166667  0.500000     12.000000
  0.333333  0.166667  0.500000     12.000000
  0.388889  0.166667  0.500000     12.000000
  0.222222  0.222222  0.500000      6.000000
  0.277778  0.222222  0.500000     12.000000
  0.333333  0.222222  0.500000     12.000000
  0.388889  0.222222  0.500000      6.000000
  0.277778  0.277778  0.500000      6.000000
  0.333333  0.277778  0.500000     12.000000
  0.333333  0.333333  0.500000      2.000000

 Following cartesian coordinates:
            Coordinates               Weight
  0.000000  0.000000  0.000000      1.000000
  0.017414  0.010054  0.000000      6.000000
  0.034828  0.020108  0.000000      6.000000
  0.052241  0.030162  0.000000      6.000000
  0.069655  0.040215  0.000000      6.000000
  0.087069  0.050269  0.000000      6.000000
  0.104483  0.060323  0.000000      6.000000
  0.121897  0.070377  0.000000      6.000000
  0.139310  0.080431  0.000000      6.000000
  0.156724  0.090485  0.000000      3.000000
  0.017414  0.030162  0.000000      6.000000
  0.034828  0.040215  0.000000     12.000000
  0.052241  0.050269  0.000000     12.000000
  0.069655  0.060323  0.000000     12.000000
  0.087069  0.070377  0.000000     12.000000
  0.104483  0.080431  0.000000     12.000000
  0.121897  0.090485  0.000000     12.000000
  0.139310  0.100539  0.000000     12.000000
  0.034828  0.060323  0.000000      6.000000
  0.052241  0.070377  0.000000     12.000000
  0.069655  0.080431  0.000000     12.000000
  0.087069  0.090485  0.000000     12.000000
  0.104483  0.100539  0.000000     12.000000
  0.121897  0.110593  0.000000     12.000000
  0.139310  0.120646  0.000000      6.000000
  0.052241  0.090485  0.000000      6.000000
  0.069655  0.100539  0.000000     12.000000
  0.087069  0.110593  0.000000     12.000000
  0.104483  0.120646  0.000000     12.000000
  0.121897  0.130700  0.000000     12.000000
  0.069655  0.120646  0.000000      6.000000
[...]
[...]
   0.33333333  0.11111111  0.50000000       0.009
   0.38888889  0.11111111  0.50000000       0.009
   0.44444444  0.11111111  0.50000000       0.005
   0.16666667  0.16666667  0.50000000       0.005
   0.22222222  0.16666667  0.50000000       0.009
   0.27777778  0.16666667  0.50000000       0.009
   0.33333333  0.16666667  0.50000000       0.009
   0.38888889  0.16666667  0.50000000       0.009
   0.22222222  0.22222222  0.50000000       0.005
   0.27777778  0.22222222  0.50000000       0.009
   0.33333333  0.22222222  0.50000000       0.009
   0.38888889  0.22222222  0.50000000       0.005
   0.27777778  0.27777778  0.50000000       0.005
   0.33333333  0.27777778  0.50000000       0.009
   0.33333333  0.33333333  0.50000000       0.002

 position of ions in fractional coordinates (direct lattice)
   0.33333300  0.66666700  0.25000000
   0.66666700  0.33333300  0.75000000
   0.33333300  0.66666700  0.85517400
   0.66666700  0.33333300  0.14482600
   0.66666600  0.33333300  0.35517400
   0.33333400  0.66666700  0.64482600

 position of ions in cartesian coordinates  (Angst):
  -0.00000160  1.84193057  3.71975108
   1.59515946  0.92096390 11.15925323
  -0.00000160  1.84193057 12.72413762
   1.59515946  0.92096390  2.15486668
   1.59515627  0.92096390  5.28463547
   0.00000160  1.84193057  9.59436883

 k-point  1 :   0.0000 0.0000 0.0000  plane waves:    2895
 k-point  2 :   0.0556-0.0000 0.0000  plane waves:    2887
 k-point  3 :   0.1111-0.0000 0.0000  plane waves:    2891
 k-point  4 :   0.1667-0.0000 0.0000  plane waves:    2867
 k-point  5 :   0.2222 0.0000 0.0000  plane waves:    2854
 k-point  6 :   0.2778 0.0000 0.0000  plane waves:    2850
 k-point  7 :   0.3333 0.0000 0.0000  plane waves:    2838
 k-point  8 :   0.3889 0.0000 0.0000  plane waves:    2832
 k-point  9 :   0.4444 0.0000 0.0000  plane waves:    2796
 k-point 10 :   0.5000 0.0000 0.0000  plane waves:    2784
 k-point 11 :   0.0556 0.0556 0.0000  plane waves:    2895
 k-point 12 :   0.1111 0.0556 0.0000  plane waves:    2881
 k-point 13 :   0.1667 0.0556 0.0000  plane waves:    2852
 k-point 14 :   0.2222 0.0556 0.0000  plane waves:    2851
 k-point 15 :   0.2778 0.0556 0.0000  plane waves:    2849
 k-point 16 :   0.3333 0.0556 0.0000  plane waves:    2838
 k-point 17 :   0.3889 0.0556 0.0000  plane waves:    2824
 k-point 18 :   0.4444 0.0556 0.0000  plane waves:    2806
 k-point 19 :   0.1111 0.1111 0.0000  plane waves:    2861
 k-point 20 :   0.1667 0.1111 0.0000  plane waves:    2845
 k-point 21 :   0.2222 0.1111 0.0000  plane waves:    2845
 k-point 22 :   0.2778 0.1111 0.0000  plane waves:    2843
 k-point 23 :   0.3333 0.1111 0.0000  plane waves:    2831
 k-point 24 :   0.3889 0.1111 0.0000  plane waves:    2814
 k-point 25 :   0.4444 0.1111 0.0000  plane waves:    2824
 k-point 26 :   0.1667 0.1667 0.0000  plane waves:    2851
 k-point 27 :   0.2222 0.1667 0.0000  plane waves:    2853
 k-point 28 :   0.2778 0.1667 0.0000  plane waves:    2849
 k-point 29 :   0.3333 0.1667 0.0000  plane waves:    2832
 k-point 30 :   0.3889 0.1667 0.0000  plane waves:    2835
 k-point 31 :   0.2222 0.2222 0.0000  plane waves:    2851
 k-point 32 :   0.2778 0.2222 0.0000  plane waves:    2832
 k-point 33 :   0.3333 0.2222 0.0000  plane waves:    2838
 k-point 34 :   0.3889 0.2222 0.0000  plane waves:    2834
 k-point 35 :   0.2778 0.2778 0.0000  plane waves:    2832
 k-point 36 :   0.3333 0.2778 0.0000  plane waves:    2846
 k-point 37 :   0.3333 0.3333 0.0000  plane waves:    2832
 k-point 38 :   0.0000 0.0000 0.2500  plane waves:    2895
 k-point 39 :   0.0556-0.0000 0.2500  plane waves:    2885
 k-point 40 :   0.1111-0.0000 0.2500  plane waves:    2881
 k-point 41 :   0.1667-0.0000 0.2500  plane waves:    2874
 k-point 42 :   0.2222 0.0000 0.2500  plane waves:    2853
 k-point 43 :   0.2778 0.0000 0.2500  plane waves:    2849
 k-point 44 :   0.3333 0.0000 0.2500  plane waves:    2838
 k-point 45 :   0.3889 0.0000 0.2500  plane waves:    2835
 k-point 46 :   0.4444 0.0000 0.2500  plane waves:    2816
 k-point 47 :   0.5000 0.0000 0.2500  plane waves:    2812
 k-point 48 :   0.0556 0.0556 0.2500  plane waves:    2888
 k-point 49 :   0.1111 0.0556 0.2500  plane waves:    2881
 k-point 50 :   0.1667 0.0556 0.2500  plane waves:    2866
 k-point 51 :   0.2222 0.0556 0.2500  plane waves:    2849
 k-point 52 :   0.2778 0.0556 0.2500  plane waves:    2851
 k-point 53 :   0.3333 0.0556 0.2500  plane waves:    2835
 k-point 54 :   0.3889 0.0556 0.2500  plane waves:    2826
 k-point 55 :   0.4444 0.0556 0.2500  plane waves:    2812
 k-point 56 :   0.1111 0.1111 0.2500  plane waves:    2864
 k-point 57 :   0.1667 0.1111 0.2500  plane waves:    2851
 k-point 58 :   0.2222 0.1111 0.2500  plane waves:    2846
 k-point 59 :   0.2778 0.1111 0.2500  plane waves:    2843
 k-point 60 :   0.3333 0.1111 0.2500  plane waves:    2826
[...]
 k-point 85 :   0.0556 0.0556 0.5000  plane waves:    2882
 k-point 86 :   0.1111 0.0556 0.5000  plane waves:    2872
 k-point 87 :   0.1667 0.0556 0.5000  plane waves:    2864
 k-point 88 :   0.2222 0.0556 0.5000  plane waves:    2848
 k-point 89 :   0.2778 0.0556 0.5000  plane waves:    2842
 k-point 90 :   0.3333 0.0556 0.5000  plane waves:    2828
 k-point 91 :   0.3889 0.0556 0.5000  plane waves:    2830
 k-point 92 :   0.4444 0.0556 0.5000  plane waves:    2812
 k-point 93 :   0.1111 0.1111 0.5000  plane waves:    2880
 k-point 94 :   0.1667 0.1111 0.5000  plane waves:    2846
 k-point 95 :   0.2222 0.1111 0.5000  plane waves:    2850
 k-point 96 :   0.2778 0.1111 0.5000  plane waves:    2844
 k-point 97 :   0.3333 0.1111 0.5000  plane waves:    2832
 k-point 98 :   0.3889 0.1111 0.5000  plane waves:    2822
 k-point 99 :   0.4444 0.1111 0.5000  plane waves:    2818
 k-point ** :   0.1667 0.1667 0.5000  plane waves:    2838
 k-point ** :   0.2222 0.1667 0.5000  plane waves:    2850
 k-point ** :   0.2778 0.1667 0.5000  plane waves:    2840
 k-point ** :   0.3333 0.1667 0.5000  plane waves:    2834
 k-point ** :   0.3889 0.1667 0.5000  plane waves:    2818
 k-point ** :   0.2222 0.2222 0.5000  plane waves:    2822
 k-point ** :   0.2778 0.2222 0.5000  plane waves:    2834
 k-point ** :   0.3333 0.2222 0.5000  plane waves:    2838
 k-point ** :   0.3889 0.2222 0.5000  plane waves:    2828
 k-point ** :   0.2778 0.2778 0.5000  plane waves:    2834
 k-point ** :   0.3333 0.2778 0.5000  plane waves:    2840
 k-point ** :   0.3333 0.3333 0.5000  plane waves:    2868

 maximum and minimum number of plane-waves per node :      1462     1377

 maximum number of plane-waves:      2895
 maximum index in each direction:
   IXMAX=    5   IYMAX=    5   IZMAX=   25
   IXMIN=   -6   IYMIN=   -5   IZMIN=  -26

 parallel 3D FFT for wavefunctions:
    minimum data exchange during FFTs selected (reduces bandwidth)
 parallel 3D FFT for charge:
    minimum data exchange during FFTs selected (reduces bandwidth)

 Broyden mixing: mesh for mixing (old mesh)
   NGX = 11   NGY = 11   NGZ = 51
  (NGX  = 36   NGY  = 36   NGZ  =160)
  gives a total of   6171 points

 initial charge density was supplied:
 charge density of overlapping atoms calculated
 number of electron      36.0000000 magnetization
 keeping initial charge density in first step

 Maximum index for augmentation-charges         3021 (set IRDMAX)

 First call to EWALD:  gamma=   0.349
 Maximum number of real-space cells 5x 5x 1
 Maximum number of reciprocal cells 2x 2x 7

--------------------------------------- Iteration      1(   1)  ---------------------------------------

 BZINTS: Fermi energy: 14.435317; 36.000000 electrons
         Band energy: 165.229872;  BLOECHL correction: -0.191691

 eigenvalue-minimisations  :  4884
 total energy-change (2. order) : 0.1984723E+03  (-0.1467697E+04)
 number of electron      36.0000000 magnetization
 augmentation part       36.0000000 magnetization

 Free energy of the ion-electron system (eV)
  alpha Z        PSCENC =        90.42577596
  Ewald energy   TEWEN  =     -1146.88905665
  -Hartree energ DENC   =      -535.10238363
  -exchange      EXHF   =         0.00000000
  -V(xc)+E(xc)   XCENC  =       -72.59368150
  PAW double counting   =       813.77302396     -658.68146406
  entropy T*S    EENTRO =         0.00000000
  eigenvalues    EBANDS =       165.22987183
  atomic energy  EATOM  =      1542.31022798
  Solvation  Ediel_sol  =         0.00000000
  free energy    TOTEN  =       198.47231391 eV

  energy without entropy =      198.47231391  energy(sigma->0) =      198.47231391

[...]

 eigenvalue-minimisations  :  6730
 total energy-change (2. order) :-0.2273686E+03  (-0.2216728E+03)
 number of electron      36.0000000 magnetization
 augmentation part       36.0000000 magnetization

[...]

 Broyden mixing:
  rms(total) = 0.97336E+00    rms(broyden)= 0.97335E+00
  rms(prec ) = 0.12179E+01
  weight for this iteration     100.00

[...]

 eigenvalues of (default mixing * dielectric matrix)
  average eigenvalue GAMMA=   0.8755
  0.8755

[...]

 eigenvalue-minimisations  :  4678
 total energy-change (2. order) : 0.1132267E-04  (-0.5494015E-05)
 number of electron      36.0000007 magnetization
 augmentation part       -1.1002534 magnetization

 Broyden mixing:
  rms(total) = 0.28575E-03    rms(broyden)= 0.28573E-03
  rms(prec ) = 0.33353E-03
  weight for this iteration     100.00

 eigenvalues of (default mixing * dielectric matrix)
  average eigenvalue GAMMA=   1.6009
  3.1323  2.6160  2.3711  1.5705  1.1451  0.8781  0.8781  0.9086  0.9086

[...]

--------------------------------------- Iteration      1(  15)  ---------------------------------------

[...]

 eigenvalue-minimisations  :  3747
 total energy-change (2. order) :-0.5274001E-06  (-0.1102414E-05)
 number of electron      36.0000007 magnetization
 augmentation part       -1.1002534 magnetization

 Free energy of the ion-electron system (eV)
  alpha Z        PSCENC =        90.42577596
  Ewald energy   TEWEN  =     -1146.88905665
  -Hartree energ DENC   =      -542.95342679
  -exchange      EXHF   =         0.00000000
  -V(xc)+E(xc)   XCENC  =       -70.39240050
  PAW double counting   =       944.34244042     -792.72366882
  entropy T*S    EENTRO =         0.00000000
  eigenvalues    EBANDS =       -67.72562911
  atomic energy  EATOM  =      1542.31022798
  Solvation  Ediel_sol  =         0.00000000
  free energy    TOTEN  =       -43.60573750 eV

  energy without entropy =      -43.60573750  energy(sigma->0) =      -43.60573750

 average (electrostatic) potential at core
  the test charge radii are     1.2296  0.9698
  (the norm of the test charge is              1.0000)
       1 -40.3325       2 -40.3325       3 -88.1703       4 -88.1703       5 -88.1703
       6 -88.1703

 E-fermi :   3.2992     XC(G=0):  -9.3248     alpha+bet : -9.6368

 k-point     1 :       0.0000    0.0000    0.0000
  band No.  band energies     occupation
      1     -10.9296      2.00000
      2     -10.9106      2.00000
      3      -9.7292      2.00000
      4      -9.6952      2.00000
      5      -2.5232      2.00000
      6      -2.3617      2.00000
      7       0.5200      2.00000
      8       0.5200      2.00000
      9       0.5205      2.00000
     10       0.5205      2.00000
     11       1.1062      2.00000
     12       1.6250      2.00000
     13       1.6250      2.00000
     14       1.6269      2.00000
     15       1.6269      2.00000
     16       1.6748      2.00000
     17       2.9225      2.00000
     18       3.2984      2.00000
     19       5.8749      0.00000
     20       5.9112      0.00000
     21       6.0193      0.00000
     22       6.0856      0.00000

[...]

 k-point   111 :       0.3333    0.3333    0.5000
  band No.  band energies     occupation
      1      -8.8832      2.00000
      2      -8.8832      2.00000
      3      -8.7234      2.00000
      4      -8.7234      2.00000
      5      -2.2296      2.00000
      6      -2.2296      2.00000
      7      -1.4208      2.00000
      8      -1.4208      2.00000
      9      -0.9267      2.00000
     10      -0.9267      2.00000
     11      -0.4405      2.00000
     12      -0.4405      2.00000
     13       0.2466      2.00000
     14       0.2466      2.00000
     15       0.9707      2.00000
     16       0.9707      2.00000
     17       3.0982      2.00000
     18       3.0982      2.00000
     19       4.7586      0.00000
     20       4.7586      0.00000
     21       6.1363      0.00000
     22       6.1371      0.00000

 soft charge-density along one line, spin component           1
         0         1         2         3         4         5         6         7         8         9
 total charge-density along one line

------------------------ aborting loop because EDIFF is reached ----------------------------------------

  DFT-D2 method for vdW energy calculation

  Parameters of vdW forcefield:
         C6(Jnm^6/mol)     R0(A)
   Mo      24.670          1.639
   S        5.570          1.683

  IVDW =   1
  VDW_RADIUS =    50.000 A
  VDW_S6 =     0.750
  VDW_SR =     1.000
  VDW_D =    20.000
  LVDW_EWALD = F

  Number of pair interactions contributing to vdW energy:   84128
  Edisp (eV):   -1.33129

  FORCE on cell =-STRESS in cart. coord.  units (eV):
  Direction    XX          YY          ZZ          XY          YZ          ZX
  Alpha Z    90.42578    90.42578    90.42578
  Ewald     -12.90873   -12.90785 -1121.07429     0.00038     0.00000     0.00025
  Hartree   466.59200   466.59202  -390.21360     0.00003    -0.00000    -0.00001
  E(xc)    -140.60515  -140.60516  -141.79649    -0.00001    -0.00000    -0.00000
  Local   -1080.53244 -1080.53311   872.56584    -0.00042    -0.00000    -0.00011
  n-local   254.48283   251.41587   263.35451    -0.53139     0.00260     0.00248
  augment   -51.13369   -51.13354   -53.33509     0.00014     0.00000    -0.00001
  Kinetic   472.27775   476.97227   479.58208   -15.05097     0.00417     0.00427
  Fock        0.00000     0.00000     0.00000     0.00000     0.00000     0.00000
  vdW         0.17103     0.17103    -0.86546     0.00000     0.00000    -0.00000
  Total      -0.41666    -0.41666    -1.35673     0.00000     0.00000     0.00000
  in kB      -5.09008    -5.09008   -16.57414     0.00000     0.00000     0.00000

 VOLUME and BASIS-vectors are now :
  energy-cutoff  :      450.00
  volume of cell :      131.15
      direct lattice vectors                 reciprocal lattice vectors
     3.190315730  0.000000000  0.000000000     0.313448600  0.180969634  0.000000000
    -1.595157865  2.762894468  0.000000000     0.000000000  0.361939267  0.000000000
     0.000000000  0.000000000 14.879004300     0.000000000  0.000000000  0.067208798

  length of vectors
     3.190315730  3.190315730 14.879004300     0.361939267  0.361939267  0.067208798

 FORCES acting on ions
    electron-ion (+dipol)            ewald-force                    non-local-force                 convergence-correction
   0.473E-04 -.345E-04 -.100E-04   0.928E-04 -.107E-03 0.288E-09   0.191E-16 0.347E-17 0.000E+00   0.565E-08 -.664E-08 -.382E-09
   0.659E-04 -.309E-04 -.100E-04   -.928E-04 0.107E-03 -.288E-09   -.226E-16 -.347E-17 0.000E+00   0.358E-08 0.131E-08 -.383E-09
   0.525E-03 -.305E-03 -.242E+03   0.865E-04 -.537E-04 0.247E+03   0.126E-16 -.191E-16 -.480E+01   0.112E-07 -.689E-08 0.608E-02
   -.117E-02 0.679E-03 0.242E+03   -.865E-04 0.537E-04 -.247E+03   -.273E-16 0.191E-16 0.480E+01   -.283E-07 0.168E-07 -.608E-02
   0.523E-03 0.689E-03 -.242E+03   -.638E-05 0.537E-04 0.247E+03   -.911E-17 -.260E-16 -.480E+01   0.127E-07 0.154E-07 0.608E-02
   -.121E-02 -.292E-03 0.242E+03   0.638E-05 -.537E-04 -.247E+03   0.191E-16 0.260E-16 0.480E+01   -.249E-07 -.834E-08 -.608E-02
   -.122E-02 0.706E-03 -.112E-04   -.561E-14 0.109E-13 0.284E-13   -.824E-17 0.000E+00 0.000E+00   -.201E-07 0.116E-07 -.762E-09

 POSITION                                       TOTAL-FORCE (eV/Angst)
     -0.00000      1.84193      3.71975        -0.000000      0.000000      0.000000
      1.59516      0.92096     11.15925        -0.000000      0.000000      0.000000
     -0.00000      1.84193     12.72414        -0.000000     -0.000000     -0.085295
      1.59516      0.92096      2.15487         0.000000      0.000000      0.085295
      1.59516      0.92096      5.28464         0.000000      0.000000     -0.085295
      0.00000      1.84193      9.59437        -0.000000     -0.000000      0.085295
    total drift:                               -0.001223      0.000706     -0.000011

  FREE ENERGIE OF THE ION-ELECTRON SYSTEM (eV)
  free  energy   TOTEN  =       -44.93702452 eV

  energy  without entropy=      -44.93702452  energy(sigma->0) =      -44.93702452

 BZINTS: Fermi energy:  3.299221; 36.000000 electrons
         Band energy: -67.725629;  BLOECHL correction:  0.000000