 vasp.5.4.4.18Apr17-6-g9f103f2a35 (build Jun 30 2017 11:15:00) complex

 executed on    STALLO_VASP_5.4.4 date 2019.11.08  14:47:26

 INCAR:
 POTCAR:   PAW_PBE Mo 08Apr2002
 POTCAR:    PAW_PBE S 17Jan2003
 POTCAR:   PAW_PBE Mo 08Apr2002
   VRHFIN =Mo: 4p5s4d

   TITEL  = PAW_PBE Mo 08Apr2002
   POMASS =   95.940; ZVAL   =    6.000    mass and valenz
   ENMAX  =  224.584; ENMIN  =  168.438 eV
   QCUT   =   -4.063; QGAM   =    8.126    optimization parameters

   Description
     l     E      TYP  RCUT    TYP  RCUT
     2   .000     23  2.500
     2   .000     23  2.500
     0   .000     23  2.600
     0  1.000     23  2.600
     1   .400     23  2.750
     1  2.000     23  2.750
     3   .000      7   .000

 POTCAR:    PAW_PBE S 17Jan2003
   VRHFIN =S : s2p4

   TITEL  = PAW_PBE S 17Jan2003
   POMASS =   32.066; ZVAL   =    6.000    mass and valenz
   ENMAX  =  280.000; ENMIN  =  194.016 eV
   QCUT   =   -4.360; QGAM   =    8.721    optimization parameters

   Description
     l     E      TYP  RCUT    TYP  RCUT
     0   .000     23  1.900
     0   .000     23  1.900
     1   .000     23  1.900
     1   .000     23  1.900
     2   .000     23  1.900

 PAW_PBE Mo 08Apr2002                   :
  PAW_PBE S 17Jan2003                   :

 POSCAR: MoS2_mp-2815_computed
  positions in direct lattice
  velocities in cartesian coordinates
 exchange correlation table for  LEXCH =        8
   RHO(1)=    0.500       N(1)  =     2000
   RHO(2)=  100.500       N(2)  =     4000

 ion  position               nearest neighbor table
   1  0.333  0.667  0.120-   3 2.41   2 2.41   2 2.41   3 2.41   3 2.41   2 2.41
   2  0.667  0.333  0.070-   1 2.41   1 2.41   1 2.41
   3  0.667  0.333  0.171-   1 2.41   1 2.41   1 2.41

  LATTYP: Found a hexagonal cell.
 ALAT       =     3.1898568304
 C/A-ratio  =     9.6537181778

  Lattice vectors:

 A1 = (   3.1898568304,   0.0000000000,   0.0000000000)
 A2 = (  -1.5949284152,   2.7624970496,   0.0000000000)
 A3 = (   0.0000000000,   0.0000000000,  30.7939788683)

Analysis of symmetry for initial positions (statically):
 Subroutine PRICEL returns:
 Original cell was already a primitive cell.

 Routine SETGRP: Setting up the symmetry group for a
 hexagonal supercell.

 Subroutine GETGRP returns: Found 12 space group operations
 (whereof  6 operations were pure point group operations)
 out of a pool of 24 trial point group operations.

The static configuration has the point symmetry C_3v.
 The point group associated with its full space group is D_3h.

Analysis of symmetry for dynamics (positions and initial velocities):
 Subroutine PRICEL returns:
 Original cell was already a primitive cell.

 Routine SETGRP: Setting up the symmetry group for a
 hexagonal supercell.

 Subroutine GETGRP returns: Found 12 space group operations
 (whereof  6 operations were pure point group operations)
 out of a pool of 24 trial point group operations.

The dynamic configuration has the point symmetry C_3v.
 The point group associated with its full space group is D_3h.

 Subroutine INISYM returns: Found 12 space group operations
 (whereof  6 operations are pure point group operations),
 and found     1 'primitive' translations

 KPOINTS: k-density: 5.0

Automatic generation of k-mesh.
Space group operators:
 irot       det(A)        alpha          n_x          n_y          n_z        tau_x        tau_y        tau_z
    1     1.000000     0.000000     1.000000     0.000000     0.000000     0.000000     0.000000     0.000000
    2     1.000000   120.000000     0.000000     0.000000    -1.000000     0.000000     0.000000     0.000000
    3     1.000000   120.000000     0.000000     0.000000     1.000000     0.000000     0.000000     0.000000
    4    -1.000000   180.000000     1.000000    -0.000000     0.000000     0.000000     0.000000     0.000000
    5    -1.000000   180.000000     0.500000    -0.866025     0.000000     0.000000     0.000000     0.000000
    6    -1.000000   180.000000    -0.500000    -0.866025     0.000000     0.000000     0.000000     0.000000
    7    -1.000000    60.000000     0.000000     0.000000    -1.000000     0.000000     0.000000     0.240924
    8    -1.000000   180.000000     0.000000     0.000000     1.000000     0.000000     0.000000     0.240924
    9    -1.000000    60.000000     0.000000     0.000000     1.000000     0.000000     0.000001     0.240924
   10     1.000000   180.000000     0.866025    -0.500000     0.000000     0.000000     0.000000     0.240924
   11     1.000000   180.000000     0.000000     1.000000     0.000000     0.000000     0.000000     0.240924
   12     1.000000   180.000000     0.866025     0.500000     0.000000     0.000000     0.000001     0.240924

 Subroutine IBZKPT returns following result:

 Found     14 irreducible k-points:

 Following reciprocal coordinates:
            Coordinates               Weight
  0.000000  0.000000  0.000000      1.000000
  0.100000 -0.000000  0.000000      6.000000
  0.200000 -0.000000  0.000000      6.000000
  0.300000 -0.000000  0.000000      6.000000
  0.400000 -0.000000  0.000000      6.000000
  0.500000 -0.000000  0.000000      3.000000
  0.100000  0.100000  0.000000      6.000000
  0.200000  0.100000  0.000000     12.000000
  0.300000  0.100000  0.000000     12.000000
  0.400000  0.100000  0.000000     12.000000
  0.200000  0.200000  0.000000      6.000000
  0.300000  0.200000  0.000000     12.000000
  0.400000  0.200000  0.000000      6.000000
  0.300000  0.300000  0.000000      6.000000

 Following cartesian coordinates:
            Coordinates               Weight
  0.000000  0.000000  0.000000      1.000000
  0.031349  0.018100  0.000000      6.000000
  0.062699  0.036199  0.000000      6.000000
  0.094048  0.054299  0.000000      6.000000
  0.125397  0.072398  0.000000      6.000000
  0.156747  0.090498  0.000000      3.000000
  0.031349  0.054299  0.000000      6.000000
  0.062699  0.072398  0.000000     12.000000
  0.094048  0.090498  0.000000     12.000000
  0.125397  0.108597  0.000000     12.000000
  0.062699  0.108597  0.000000      6.000000
  0.094048  0.126697  0.000000     12.000000
  0.125397  0.144797  0.000000      6.000000
  0.094048  0.162896  0.000000      6.000000

 SYSTEM =  unknown system
 POSCAR =  MoS2_mp-2815_computed

 Startparameter for this run:
   NWRITE =      2    write-flag & timer
   PREC   = accura    normal or accurate (medium, high low for compatibility)
   ISTART =      0    job   : 0-new  1-cont  2-samecut
   ICHARG =      2    charge: 1-file 2-atom 10-const
   ISPIN  =      1    spin polarized calculation?
   LNONCOLLINEAR =      F non collinear calculations
   LSORBIT =      F    spin-orbit coupling
   INIWAV =      1    electr: 0-lowe 1-rand  2-diag
   LASPH  =      F    aspherical Exc in radial PAW
   METAGGA=      F    non-selfconsistent MetaGGA calc.

 Electronic Relaxation 1
   ENCUT  =  450.0 eV  33.07 Ry    5.75 a.u.   5.52  5.52 53.26*2*pi/ulx,y,z
   ENINI  =  450.0     initial cutoff
   ENAUG  =  345.3 eV  augmentation charge cutoff
   NELM   =    200;   NELMIN=  4; NELMDL= -5     # of ELM steps
   EDIFF  = 0.1E-05   stopping-criterion for ELM
   LREAL  =      F    real-space projection
   NLSPLINE    = F    spline interpolate recip. space projectors
   LCOMPAT=      F    compatible to vasp.4.4
   GGA_COMPAT  = T    GGA compatible to vasp.4.4-vasp.4.6
   LMAXPAW     = -100 max onsite density
   LMAXMIX     =    2 max onsite mixed and CHGCAR
   VOSKOWN=      0    Vosko Wilk Nusair interpolation
   ROPT   =    0.00000   0.00000
 Ionic relaxation
   EDIFFG = -.1E-01   stopping-criterion for IOM
   NSW    =     50    number of steps for IOM
   NBLOCK =      1;   KBLOCK =     50    inner block; outer block
   IBRION =      1    ionic relax: 0-MD 1-quasi-New 2-CG
   NFREE  =      0    steps in history (QN), initial steepest desc. (CG)
   ISIF   =      3    stress and relaxation
   IWAVPR =     11    prediction:  0-non 1-charg 2-wave 3-comb
   ISYM   =      2    0-nonsym 1-usesym 2-fastsym
   LCORR  =      T    Harris-Foulkes like correction to forces

   POTIM  = 0.5000    time-step for ionic-motion
   TEIN   =    0.0    initial temperature
   TEBEG  =    0.0;   TEEND  =   0.0 temperature during run
   SMASS  =  -3.00    Nose mass-parameter (am)
   estimated Nose-frequenzy (Omega)   =  0.10E-29 period in steps =****** mass=  -0.233E-27a.u.
   SCALEE = 1.0000    scale energy and forces
   NPACO  =    256;   APACO  = 16.0  distance and # of slots for P.C.
   PSTRESS=    0.0 pullay stress

  Mass of Ions in am
   POMASS =  95.94 32.07
  Ionic Valenz
   ZVAL   =   6.00  6.00
  Atomic Wigner-Seitz radii
  virtual crystal weights
   VCA    =   1.00  1.00
   NELECT =      18.0000    total number of electrons
   NUPDOWN=      -1.0000    fix difference up-down

 DOS related values:
   EMIN   =  10.00;   EMAX   =-10.00  energy-range for DOS
   EFERMI =   0.00
   ISMEAR =     0;   SIGMA  =   0.20  broadening in eV -4-tet -1-fermi 0-gaus

 Electronic relaxation 2 (details)
   IALGO  =     38    algorithm
   LDIAG  =      T    sub-space diagonalisation (order eigenvalues)
   LSUBROT=      F    optimize rotation matrix (better conditioning)
   TURBO    =      0    0=normal 1=particle mesh
   IRESTART =      0    0=no restart 2=restart with 2 vectors
   NREBOOT  =      0    no. of reboots
   NMIN     =      0    reboot dimension
   EREF     =   0.00    reference energy to select bands
   IMIX   =      4    mixing-type and parameters
     AMIX     =   0.40;   BMIX     =  1.00
     AMIX_MAG =   1.60;   BMIX_MAG =  1.00
     AMIN     =   0.10
     WC   =   100.;   INIMIX=   1;  MIXPRE=   1;  MAXMIX=  80

 Intra band minimization:
   WEIMIN = 0.0010     energy-eigenvalue tresh-hold
   EBREAK =  0.18E-07  absolut break condition
   DEPER  =   0.30     relativ break condition

   TIME   =   0.40     timestep for ELM

  volume/ion in A,a.u.               =      90.45       610.40
  Fermi-wavevector in a.u.,A,eV,Ry     =   0.662704  1.252328  5.975355  0.439176
  Thomas-Fermi vector in A             =   1.735856

 Write flags
   LWAVE        =      F    write WAVECAR
   LDOWNSAMPLE  =      F    k-point downsampling of WAVECAR
   LCHARG       =      T    write CHGCAR
   LVTOT        =      F    write LOCPOT, total local potential
   LVHAR        =      F    write LOCPOT, Hartree potential only
   LELF         =      F    write electronic localiz. function (ELF)
   LORBIT       =      0    0 simple, 1 ext, 2 COOP (PROOUT), +10 PAW based schemes

 Dipole corrections
   LMONO  =      F    monopole corrections only (constant potential shift)
   LDIPOL =      F    correct potential (dipole corrections)
   IDIPOL =      0    1-x, 2-y, 3-z, 4-all directions
   EPSILON=  1.0000000 bulk dielectric constant

 Exchange correlation treatment:
   GGA     =    --    GGA type
   VOSKOWN=      0    Vosko Wilk Nusair interpolation
   LHFCALC =     F    Hartree Fock is set to
   LHFONE  =     F    Hartree Fock one center treatment
   AEXX    =    0.0000 exact exchange contribution

 Linear response parameters
   LEPSILON=     F    determine dielectric tensor
   LRPA    =     F    only Hartree local field effects (RPA)
   LNABLA  =     F    use nabla operator in PAW spheres
   LVEL    =     F    velocity operator in full k-point grid
   LINTERFAST=   F  fast interpolation
   KINTER  =     0    interpolate to denser k-point grid
   CSHIFT  =0.1000    complex shift for real part using Kramers Kronig
   OMEGAMAX=  -1.0    maximum frequency
   DEG_THRESHOLD= 0.2000000E-02 threshold for treating states as degnerate
   RTIME   =   -0.100 relaxation time in fs
  (WPLASMAI=    0.000 imaginary part of plasma frequency in eV, 0.658/RTIME)
   DFIELD  = 0.0000000 0.0000000 0.0000000 field for delta impulse in time

 Orbital magnetization related:
   ORBITALMAG=     F  switch on orbital magnetization
   LCHIMAG   =     F  perturbation theory with respect to B field
   DQ        =  0.001000  dq finite difference perturbation B field
   LLRAUG    =     F  two centre corrections for induced B field

 quasi-Newton-method for relaxation of ions
 charge density and potential will be updated during run
 non-spin polarized calculation
 Variant of blocked Davidson
 Davidson routine will perform the subspace rotation
 perform sub-space diagonalisation
    after iterative eigenvector-optimisation
 modified Broyden-mixing scheme, WC =      100.0
 initial mixing is a Kerker type mixing with AMIX =  0.4000 and BMIX =      1.0000
 Hartree-type preconditioning will be used
 using additional bands            5
 reciprocal scheme for non local part
 use partial core corrections
 calculate Harris-corrections to forces
   (improved forces if not selfconsistent)
 use gradient corrections
 use of overlap-Matrix (Vanderbilt PP)
 Gauss-broadening in eV      SIGMA  =   0.20

  energy-cutoff  :      450.00
  volume of cell :      271.36
      direct lattice vectors                 reciprocal lattice vectors
     3.189856830  0.000000000  0.000000000     0.313493694  0.180995668  0.000000000
    -1.594928415  2.762497050  0.000000000     0.000000000  0.361991337  0.000000000
     0.000000000  0.000000000 30.793978868     0.000000000  0.000000000  0.032473881

  length of vectors
     3.189856830  3.189856830 30.793978868     0.361991337  0.361991337  0.032473881

 k-points in units of 2pi/SCALE and weight: k-density: 5.0
   0.00000000  0.00000000  0.00000000       0.010
   0.03134937  0.01809957  0.00000000       0.060
   0.06269874  0.03619913  0.00000000       0.060
   0.09404811  0.05429870  0.00000000       0.060
   0.12539748  0.07239827  0.00000000       0.060
   0.15674685  0.09049783  0.00000000       0.030
   0.03134937  0.05429870  0.00000000       0.060
   0.06269874  0.07239827  0.00000000       0.120
   0.09404811  0.09049783  0.00000000       0.120
   0.12539748  0.10859740  0.00000000       0.120
   0.06269874  0.10859740  0.00000000       0.060
   0.09404811  0.12669697  0.00000000       0.120
   0.12539748  0.14479653  0.00000000       0.060
   0.09404811  0.16289610  0.00000000       0.060

 k-points in reciprocal lattice and weights: k-density: 5.0
   0.00000000  0.00000000  0.00000000       0.010
   0.10000000 -0.00000000  0.00000000       0.060
   0.20000000 -0.00000000  0.00000000       0.060
   0.30000000 -0.00000000  0.00000000       0.060
   0.40000000 -0.00000000  0.00000000       0.060
   0.50000000 -0.00000000  0.00000000       0.030
   0.10000000  0.10000000  0.00000000       0.060
   0.20000000  0.10000000  0.00000000       0.120
   0.30000000  0.10000000  0.00000000       0.120
   0.40000000  0.10000000  0.00000000       0.120
   0.20000000  0.20000000  0.00000000       0.060
   0.30000000  0.20000000  0.00000000       0.120
   0.40000000  0.20000000  0.00000000       0.060
   0.30000000  0.30000000  0.00000000       0.060

 position of ions in fractional coordinates (direct lattice)
   0.33333300  0.66666700  0.12046214
   0.66666700  0.33333300  0.06984045
   0.66666600  0.33333300  0.17108384

 position of ions in cartesian coordinates  (Angst):
  -0.00000160  1.84166562  3.70950873
   1.59493001  0.92083143  2.15066543
   1.59492682  0.92083143  5.26835203

 k-point  1 :   0.0000 0.0000 0.0000  plane waves:    5987
 k-point  2 :   0.1000-0.0000 0.0000  plane waves:    5969
 k-point  3 :   0.2000-0.0000 0.0000  plane waves:    5925
 k-point  4 :   0.3000-0.0000 0.0000  plane waves:    5880
 k-point  5 :   0.4000-0.0000 0.0000  plane waves:    5864
 k-point  6 :   0.5000-0.0000 0.0000  plane waves:    5812
 k-point  7 :   0.1000 0.1000 0.0000  plane waves:    5947
 k-point  8 :   0.2000 0.1000 0.0000  plane waves:    5903
 k-point  9 :   0.3000 0.1000 0.0000  plane waves:    5877
 k-point 10 :   0.4000 0.1000 0.0000  plane waves:    5836
 k-point 11 :   0.2000 0.2000 0.0000  plane waves:    5887
 k-point 12 :   0.3000 0.2000 0.0000  plane waves:    5858
 k-point 13 :   0.4000 0.2000 0.0000  plane waves:    5842
 k-point 14 :   0.3000 0.3000 0.0000  plane waves:    5868

 maximum and minimum number of plane-waves per node :      2994     2869

 maximum number of plane-waves:      5987
 maximum index in each direction:
   IXMAX=    5   IYMAX=    5   IZMAX=   53
   IXMIN=   -6   IYMIN=   -5   IZMIN=  -53

 parallel 3D FFT for wavefunctions:
    minimum data exchange during FFTs selected (reduces bandwidth)
 parallel 3D FFT for charge:
    minimum data exchange during FFTs selected (reduces bandwidth)

 Broyden mixing: mesh for mixing (old mesh)
   NGX = 11   NGY = 11   NGZ =107
  (NGX  = 48   NGY  = 48   NGZ  =432)
  gives a total of  12947 points

 initial charge density was supplied:
 charge density of overlapping atoms calculated
 number of electron      18.0000000 magnetization
 keeping initial charge density in first step

 Maximum index for augmentation-charges         7169 (set IRDMAX)

 First call to EWALD:  gamma=   0.274
 Maximum number of real-space cells 6x 6x 1
 Maximum number of reciprocal cells 2x 2x11

--------------------------------------- Iteration      1(   1)  ---------------------------------------

 eigenvalue-minimisations  :   392
 total energy-change (2. order) : 0.1371848E+03  (-0.5358608E+03)
 number of electron      18.0000000 magnetization
 augmentation part       18.0000000 magnetization

 Free energy of the ion-electron system (eV)
  alpha Z        PSCENC =        10.92610231
  Ewald energy   TEWEN  =      5354.53473861
  -Hartree energ DENC   =     -6027.92195658
  -exchange      EXHF   =         0.00000000
  -V(xc)+E(xc)   XCENC  =       -36.28686144
  PAW double counting   =       406.88651198     -329.34073203
  entropy T*S    EENTRO =        -0.05796644
  eigenvalues    EBANDS =       -12.71014824
  atomic energy  EATOM  =       771.15511399
  Solvation  Ediel_sol  =         0.00000000
  free energy    TOTEN  =       137.18480217 eV

  energy without entropy =      137.24276861  energy(sigma->0) =      137.21378539

[...]

 eigenvalue-minimisations  :   702
 total energy-change (2. order) :-0.1432056E+03  (-0.1334965E+03)
 number of electron      18.0000000 magnetization
 augmentation part       18.0000000 magnetization

[...]

 Broyden mixing:
  rms(total) = 0.68734E+00    rms(broyden)= 0.68733E+00
  rms(prec ) = 0.73108E+00
  weight for this iteration     100.00

[...]

 eigenvalues of (default mixing * dielectric matrix)
  average eigenvalue GAMMA=   0.7990
  0.7990

[...]

 eigenvalue-minimisations  :   494
 total energy-change (2. order) : 0.2754903E-03  (-0.5896899E-04)
 number of electron      18.0000005 magnetization
 augmentation part       -0.5509911 magnetization

[...]

 Broyden mixing:
  rms(total) = 0.20792E-04    rms(broyden)= 0.20792E-04
  rms(prec ) = 0.21959E-04
  weight for this iteration     100.00

 eigenvalues of (default mixing * dielectric matrix)
  average eigenvalue GAMMA=   2.3411
  7.8220  6.2656  3.9216  2.9660  2.3776  2.3776  1.8040  1.8040  1.5762  0.6197
  1.1246  1.0154  1.0154  0.9070  0.9307  0.9307

[...]

--------------------------------------- Iteration      1(  22)  ---------------------------------------

 eigenvalue-minimisations  :   376
 total energy-change (2. order) :-0.3704158E-06  (-0.1239634E-08)
 number of electron      18.0000005 magnetization
 augmentation part       -0.5497349 magnetization

 Free energy of the ion-electron system (eV)
  alpha Z        PSCENC =        10.92610231
  Ewald energy   TEWEN  =      5354.53473861
  -Hartree energ DENC   =     -6041.38985653
  -exchange      EXHF   =         0.00000000
  -V(xc)+E(xc)   XCENC  =       -35.17120548
  PAW double counting   =       473.39880309     -397.60758366
  entropy T*S    EENTRO =        -0.00000000
  eigenvalues    EBANDS =      -157.64319132
  atomic energy  EATOM  =       771.15511399
  Solvation  Ediel_sol  =         0.00000000
  free energy    TOTEN  =       -21.79707898 eV

  energy without entropy =      -21.79707898  energy(sigma->0) =      -21.79707898

 average (electrostatic) potential at core
  the test charge radii are     1.2296  0.9698
  (the norm of the test charge is              1.0000)
       1 -47.1895       2 -95.0371       3 -95.0371

 E-fermi :  -2.9211     XC(G=0):  -2.4879     alpha+bet : -2.3288

 k-point     1 :       0.0000    0.0000    0.0000
  band No.  band energies     occupation
      1     -17.8063      2.00000
      2     -16.5778      2.00000
      3      -9.3240      2.00000
      4      -6.3792      2.00000
      5      -6.3792      2.00000
      6      -5.4680      2.00000
      7      -5.2638      2.00000
      8      -5.2638      2.00000
      9      -3.7424      2.00000
     10      -0.9857      0.00000
     11      -0.9856      0.00000
     12      -0.7476      0.00000
     13      -0.7475      0.00000
     14       1.6682      0.00000

[...]

 k-point    14 :       0.3000    0.3000    0.0000
  band No.  band energies     occupation
      1     -15.8100      2.00000
      2     -15.6229      2.00000
      3      -9.0434      2.00000
      4      -8.5429      2.00000
      5      -7.5493      2.00000
      6      -7.2274      2.00000
      7      -6.7132      2.00000
      8      -5.7672      2.00000
      9      -3.8871      2.00000
     10      -1.9848      0.00000
     11      -0.6676      0.00000
     12      -0.4018      0.00000
     13       1.0138      0.00000
     14       3.4398      0.00000

 soft charge-density along one line, spin component           1
         0         1         2         3         4         5         6         7         8         9
 total charge-density along one line

------------------------ aborting loop because EDIFF is reached ----------------------------------------

  DFT-D2 method for vdW energy calculation

  Parameters of vdW forcefield:
         C6(Jnm^6/mol)     R0(A)
   Mo      24.670          1.639
   S        5.570          1.683

  IVDW =   1
  VDW_RADIUS =    50.000 A
  VDW_S6 =     0.750
  VDW_SR =     1.000
  VDW_D =    20.000
  LVDW_EWALD = F

  Number of pair interactions contributing to vdW energy:   12009
  Edisp (eV):   -0.59127

  FORCE on cell =-STRESS in cart. coord.  units (eV):
  Direction    XX          YY          ZZ          XY          YZ          ZX
  Alpha Z    10.92610    10.92610    10.92610
  Ewald    5921.93836  5921.93880 -6489.34278     0.00019     0.00000     0.00013
  Hartree  6003.13233  6003.13234 -5964.87346     0.00002    -0.00000    -0.00000
  E(xc)     -70.35098   -70.35098   -70.96339    -0.00000     0.00000    -0.00000
  Local  -12204.19827-12204.19854 12169.00138    -0.00016    -0.00000    -0.00006
  n-local   127.33231   125.86771   131.81698    -0.24298    -0.00000    -0.00001
  augment   -25.56063   -25.56062   -26.67468     0.00002     0.00000    -0.00000
  Kinetic   236.21975   238.48201   240.22753    -7.46810     0.00001     0.00002
  Fock        0.00000     0.00000     0.00000     0.00000     0.00000     0.00000
  vdW         0.15762     0.15762    -0.13635     0.00000     0.00000    -0.00000
  Total      -0.00448    -0.00448    -0.01867     0.00000     0.00000     0.00000
  in kB      -0.02645    -0.02645    -0.11021     0.00000     0.00000     0.00000

 VOLUME and BASIS-vectors are now :
  energy-cutoff  :      450.00
  volume of cell :      271.36
      direct lattice vectors                 reciprocal lattice vectors
     3.189856830  0.000000000  0.000000000     0.313493694  0.180995668  0.000000000
    -1.594928415  2.762497050  0.000000000     0.000000000  0.361991337  0.000000000
     0.000000000  0.000000000 30.793978868     0.000000000  0.000000000  0.032473881

  length of vectors
     3.189856830  3.189856830 30.793978868     0.361991337  0.361991337  0.032473881

 FORCES acting on ions
    electron-ion (+dipol)            ewald-force                    non-local-force                 convergence-correction
   -.103E-04 -.137E-05 0.109E-05   0.942E-04 -.109E-03 0.348E-06   -.694E-17 0.208E-16 -.635E-21   -.114E-09 0.333E-10 -.734E-08
   -.853E-03 0.494E-03 0.596E+03   -.873E-04 0.544E-04 -.601E+03   0.867E-18 -.226E-16 0.472E+01   0.541E-09 -.193E-09 0.139E-03
   0.864E-03 0.494E-03 -.596E+03   -.692E-05 0.544E-04 0.601E+03   -.104E-16 -.208E-16 -.472E+01   -.283E-09 -.193E-09 -.139E-03
   0.143E-05 0.986E-03 0.389E-04   0.592E-14 -.327E-14 0.000E+00   -.165E-16 -.226E-16 -.888E-15   0.144E-09 -.353E-09 -.196E-07

 POSITION                                       TOTAL-FORCE (eV/Angst)
     -0.00000      1.84167      3.70951         0.000000     -0.000000      0.000000
      1.59493      0.92083      2.15067        -0.000000      0.000000     -0.001246
      1.59493      0.92083      5.26835         0.000000     -0.000000      0.001246
    total drift:                                0.000001      0.000986      0.000039

  FREE ENERGIE OF THE ION-ELECTRON SYSTEM (eV)
  free  energy   TOTEN  =       -22.38835340 eV

  energy  without entropy=      -22.38835340  energy(sigma->0) =      -22.38835340

 Quasi-Newton relaxation of ions (Broydens 2nd method)
  g(Force)  = 0.150E-06   g(Stress)= 0.625E-05

 Reset! Starting new Quasi-Newton update for ions

 reached required accuracy - stopping structural energy minimisation